COMMENT
    1.000000000
  12.239000000000001    0.000000000000000    0.000000000000000
   0.000000000000000   15.074000000000000    0.000000000000000
  -2.809764000000000    0.000000000000000   13.358706000000000
  Al  C  H  O
  8  48  24  48
Direct
   0.992413698872035    0.496268409181372    0.496999484830342
   0.000696698480123    0.000356314846756    0.003731214685015
   0.237180829805939    0.438482154703463    0.435885781152755
   0.767057168227503    0.558921321480695    0.571693096621784
   0.762134442994672    0.935518110654106    0.063853564858752
   0.236099978600482    0.068994294812260    0.939784137775021
   0.499371635798154    0.499452036619345    0.499522184259463
   0.500115764092862    0.999416213347486    0.996189301568580
   0.970632690785960    0.831962319225156    0.105123954371030
   0.022712083028732    0.163927955419928    0.894368062295854
   0.021799558720076    0.336312193180310    0.391028142995287
   0.975224667934226    0.657446596789173    0.623032650018647
   0.088415413401259    0.571919862014064    0.321760206415202
   0.915889923607970    0.434996019636460    0.676589484041344
   0.905270462775329    0.071719517049224    0.163894616739076
   0.079583916268888    0.928870903542523    0.826367464034316
   0.591895270455631    0.904471275043121    0.180334083256267
   0.408638819832764    0.098634071911901    0.809000512474786
   0.415497080544199    0.405397372960064    0.321517667953767
   0.589648623125293    0.592847286718854    0.686491640732269
   0.598034880456501    0.668435717128831    0.442339250523217
   0.407698160179705    0.339111052142762    0.560398589504103
   0.415794899207110    0.168831763301048    0.060362283592438
   0.595369615472800    0.834310733713679    0.938676246037603
   0.986183997105595    0.687581265755606    0.202545815440507
   0.007006337757495    0.305575825925435    0.788497029577565
   0.001424242084159    0.202315908186281    0.272761448601384
   0.988253684836648    0.795210295873690    0.727262805244759
   0.452822824078959    0.842351068064216    0.275769973528873
   0.545436929969048    0.149871964972801    0.703148942719452
   0.559166072420323    0.343671221971607    0.228002622409685
   0.453221043232873    0.664826854186016    0.776048219041575
   0.557930105587246    0.849422847286719    0.260714623107957
   0.438056598817798    0.142034629162797    0.721190360802910
   0.453543192244227    0.347331829640441    0.251531847470855
   0.563299264576273    0.647661536420326    0.765306160641607
   0.032263572697581    0.756640573172350    0.155795029847951
   0.969243152257954    0.248579673610190    0.854184529549494
   0.965812681825916    0.258124585378798    0.338954237034635
   0.029914614608161    0.731796470744328    0.674852040309892
   0.082496844884864    0.636225288576357    0.243879160152188
   0.912208364107656    0.354252355048428    0.739328345125643
   0.910948074189821    0.143615496882049    0.236957082519819
   0.079610868112750    0.854610587767016    0.760507791697789
   0.634738396275687    0.791734111715537    0.323853972083823
   0.364693293488259    0.200374817566671    0.654799199862621
   0.381606434618256    0.288484808279156    0.189179999919154
   0.637054616860183    0.699184025474327    0.835814486822302
   0.173469448550278    0.665138649329972    0.205057286237155
   0.820807384006286    0.326117155366857    0.776549764625406
   0.826471844489728    0.161066074034762    0.286988125945732
   0.169347416240641    0.832061828313653    0.721125983310060
   0.567503608705502    0.742211755340321    0.369987182890319
   0.434985784852394    0.259967493697758    0.623034895745142
   0.444427900783341    0.245534695502189    0.131044129573628
   0.569387448047763    0.756713546503914    0.875384187660092
   0.182073983365499    0.525472336473398    0.567004019700711
   0.822704073655005    0.563782008756800    0.415794763355073
   0.810257798856097    0.003875938702401    0.912857877102767
   0.193168950346037    0.975839193312989    0.069342045554412
   0.336723666979725    0.582945469019504    0.453511739834682
   0.669643281105458    0.418768740878334    0.526116825985990
   0.671743946828961    0.077994560169829    0.011212388385522
   0.329821697386178    0.923285126708239    0.952435063695541
   0.896541571482664    0.670890274645084    0.194419279831445
   0.089117706868082    0.319149528990314    0.770246758930094
   0.078764954280921    0.197609791694308    0.244215270550905
   0.901029479201267    0.802447923577020    0.733833800968447
   0.379146628022334    0.878360090221573    0.241015110295862
   0.617913733464939    0.109130290566538    0.728127409945245
   0.633336791751157    0.378561098580337    0.265456100313908
   0.380828487595964    0.624751890672681    0.747600104381367
   0.726284218771446    0.791183494759188    0.343382061106817
   0.272555355810091    0.189676263765424    0.631642016824085
   0.290995430822782    0.290701870770864    0.181340168725923
   0.727761351541558    0.690666047499005    0.857620491086487
   0.244888184983692    0.625147936844898    0.199898103903177
   0.729781693772596    0.342808809871302    0.764280612208997
   0.739395645109839    0.132869178718323    0.280629725663549
   0.248535182380767    0.861735438503383    0.715505678469157
   0.148582101474903    0.481200079607271    0.519561550347766
   0.842012279585206    0.523356109858034    0.471982091678640
   0.849566254640115    0.974465967891734    0.975573532346621
   0.153245114743126    0.020092410773517    0.025346242368086
   0.353316946491264    0.523406527796205    0.478298571732921
   0.647874508710920    0.481793817168635    0.523320147924507
   0.648869372233794    0.015423643359427    0.010734797217635
   0.350347686865521    0.984151519172084    0.974660270238749
   0.687647363339630    0.890214939631153    0.163350402351845
   0.318615518477045    0.121799787713945    0.835335398503418
   0.319832370833374    0.387463181637256    0.339511925780835
   0.688547483242595    0.605007297333156    0.669459302420459
   0.870790120485609    0.840447127504312    0.115490227870873
   0.126466265702429    0.157211091946398    0.895820298762470
   0.116066227287372    0.351263765423909    0.375688333885033
   0.877133467760042    0.644971474061298    0.632681788191162
   0.180132753562979    0.526571580204325    0.338877133758315
   0.828432268583353    0.483486798460926    0.671530610824132
   0.823278805049724    0.018847751094600    0.156838544092519
   0.162565207818536    0.982977311927823    0.834489508190389
   0.027682400979958    0.884881252487727    0.058505591784114
   0.960745450818619    0.103266551678387    0.918352421259963
   0.963270180355011    0.384213214806952    0.440273182148031
   0.026642632290211    0.608675865729070    0.571421363715917
   0.007810838244687    0.568127238954491    0.367909137307161
   0.998020556917499    0.446718190261377    0.633602536054016
   0.987238036675681    0.061103290433860    0.122895136699617
   0.001852166149733    0.934390340984477    0.872382399912087
   0.700321037291050    0.656517845296537    0.472046469171490
   0.307179273673995    0.364210561231259    0.543614029682216
   0.310013166634952    0.154533634071912    0.031885648205747
   0.701567274717824    0.848009818230065    0.968694123517652
   0.511863487614621    0.629726018309672    0.464888590257170
   0.486493281845483    0.376937773649993    0.525589080259720
   0.494941639358335    0.122060501525806    0.039227751550188
   0.513235311024132    0.875859095130689    0.963079807280735
   0.519534333740964    0.962252885763566    0.138446044100379
   0.478432194557499    0.039600636858166    0.850958169152012
   0.481505310954588    0.466265092211755    0.360052837452969
   0.513524880154418    0.543120605015258    0.640278332347459
   0.144140426696971    0.744858697094335    0.156993499220658
   0.858227344141223    0.266714873291761    0.858586153479237
   0.859266856035971    0.235542656229269    0.349355693582896
   0.137433767245690    0.751273716332758    0.667910499714568
   0.454620672045069    0.769152182566008    0.344453272644821
   0.548475595084611    0.230481623988324    0.651347518240165
   0.559100175362637    0.277602494361152    0.153851727854479
   0.451965913988283    0.730953960461722    0.845590882829519
