COMMENT
    1.000000000
  11.897069999999999    0.000000000000000    0.000000000000000
   0.000000000000000   15.009448000000001    0.000000000000000
  -2.816105000000000    0.000000000000000   13.739188000000000
  Al  C  H  N  O
  8  40  144  16  100
Direct
   0.498120500359009    0.502374904127054    0.507511069795391
   0.497323428186008    0.999976814603708    0.011101019943828
   0.727029585914332    0.434832779992975    0.428138111218800
   0.253227250171967    0.561751504785519    0.556141309078819
   0.255867423080364    0.943918790351251    0.081805416739330
   0.729906650964112    0.060835015384976    0.924021128468436
   0.016440981506257    0.444416077126887    0.499118288504386
   0.000023310102649    0.019697793016772    0.006589996439382
   0.488405226084469    0.356099704666021    0.377063768251806
   0.476129378369782    0.642244138491968    0.630411345998031
   0.491664034803702    0.878206846780774    0.161855271213990
   0.503055152257209    0.140295632457636    0.869556483250684
   0.891937015395672    0.389414054400935    0.319905368497760
   0.048813685093685    0.585333984301088    0.660898591678052
   0.085747554381400    0.923185183092676    0.184797675088222
   0.907229876716638    0.105402943532634    0.825245276503968
   0.375972313282773    0.111182636430067    0.141808962800422
   0.584370380862307    0.912911654046171    0.843965451233362
   0.590218821069695    0.593194366641598    0.349956634991820
   0.397308595537271    0.410444807830375    0.649477974972029
   0.473453060080374    0.237466427812668    0.248174055118832
   0.501011866142786    0.762872825169853    0.762490476147499
   0.508261174843093    0.750667179765705    0.291512133031443
   0.480934803050055    0.266413528332288    0.743180746926237
   0.910582593156314    0.182034675758895    0.039794273140451
   0.100020499876638    0.798636965196855    0.993166408378719
   0.088714936112012    0.678959013016335    0.426086316018094
   0.881263990498769    0.293463157339297    0.532661027711390
   0.853445545691614    0.271563617795938    0.183534136078493
   0.192053973467899    0.730080146851503    0.869076105516571
   0.132020459925410    0.783286633858887    0.293780826057552
   0.850575025168051    0.196540205875659    0.672365062622333
   0.429149694529527    0.293581749308835    0.311158126666583
   0.543568216635395    0.697460692758321    0.706297926777041
   0.547987986914203    0.810302950514902    0.228241290533327
   0.439870311016932    0.210607345453344    0.806503266423023
   0.924547580853223    0.246474753768426    0.122654264575170
   0.094042012086678    0.743051976328510    0.907964866628217
   0.060624937632228    0.730952930447542    0.336428906861162
   0.919336356607586    0.232899970738431    0.611755949478237
   0.923995629920357    0.310525077271329    0.264528733430243
   0.061722445632459    0.647396226696678    0.744956688852354
   0.057790576302669    0.846393551581644    0.237827009864047
   0.932488603907723    0.177404258970750    0.757934166123937
   0.376767679700976    0.200329152677700    0.184208848441407
   0.582634236058482    0.832548938508598    0.779878694432306
   0.594182086806180    0.686627516215120    0.312387456958883
   0.396373630671477    0.330103412197437    0.710131486664277
   0.685667578622861    0.460729801655597    0.588907437615673
   0.326129038033127    0.530103438847318    0.404292451635424
   0.375596342312948    0.868979325555477    0.962626030009925
   0.659205566634138    0.109409086863154    0.069991982058911
   0.847026235688665    0.522051843612103    0.544248320934250
   0.198693864391520    0.435958071209547    0.451735575639550
   0.164097509127389    0.042128597933781    0.953113095184373
   0.819127095946646    0.945257946861204    0.019066192266967
   0.107019852484291    0.279931014118574    0.134114912759036
   0.914128968078213    0.753285530553822    0.876645694054117
   0.878914002057904    0.721112461963958    0.312907866170839
   0.100233461666792    0.230246308858260    0.628506575497766
   0.268390382490065    0.276745020869522    0.347767277076345
   0.698716132458754    0.690864847261538    0.659476382447056
   0.712089334240702    0.828291620051584    0.195417662237390
   0.278098206339697    0.205536539385059    0.848630938014677
   0.564948958665869    0.218319820955441    0.245700109788148
   0.415646844158116    0.760907396461216    0.783823614612450
   0.438974460163941    0.763572384540724    0.331752502404072
   0.568888190236375    0.270253776154859    0.728936819264719
   0.764220802472366    0.261755129169307    0.168636603560560
   0.277074137437105    0.770181554977905    0.917281283289813
   0.223422488437473    0.776051191223022    0.299308081380064
   0.758945509210564    0.190521996545109    0.656416521849763
   0.095939920833336    0.905389725191759    0.539847041906698
   0.226408990730328    0.903097835443382    0.597233985006974
   0.793567679931534    0.941087240516773    0.340136549554457
   0.752684228735010    0.867000571906442    0.400996041396333
   0.308508718717145    0.721192411606343    0.196079273389374
   0.293944432868839    0.617680943363140    0.245732134970422
   0.209212613621300    0.508880806276154    0.285716302884857
   0.315187996524665    0.478138170037965    0.237765870879706
   0.895229727059373    0.568948971341251    0.811525397279664
   0.796679650430448    0.489494350491770    0.787397333816234
   0.846588661092685    0.392638689977140    0.720674322237966
   0.732509722111725    0.350090156546730    0.669623270312627
   0.219322028811898    0.212241649393102    0.521003133518516
   0.283591820412257    0.129363851355493    0.568701003290733
   0.102805376073713    0.149748345175652    0.205218823703410
   0.999380140232746    0.098777116919956    0.223818176154224
   0.270311436574677    0.379381706775626    0.932041980938029
   0.980727034955632    0.448167047848795    0.073888646112128
   0.222408038240999    0.969429388742344    0.421665385174146
   0.318054924710732    0.892031472443224    0.420723553677262
   0.594745022894416    0.153744494800875    0.567579394066083
   0.598707726619079    0.145193880547772    0.685506305030545
   0.365188599203936    0.937596106132617    0.713053784546801
   0.399009187070389    0.938209053390904    0.612360060871137
   0.390160134681113    0.611917240394184    0.014062839812659
   0.487745622630500    0.510283256252995    0.956002640039571
   0.976768358638175    0.768655849302386    0.476999805228664
   0.997993030518399    0.857859662793728    0.421679214230128
   0.062732039024688    0.368971597090046    0.665609932697624
   0.036417890307744    0.333264754306754    0.813949121301783
   0.009752388470774    0.433848733144617    0.800746012064177
   0.057379539888051    0.473000073020673    0.960464330206414
   0.227376835985146    0.931846394351078    0.864250492823884
   0.308420176714499    0.745124004560328    0.884557369765957
   0.078791374361162    0.661818475935957    0.492028349855901
   0.176543449883017    0.394935909701676    0.626122882953490
   0.749926682117001    0.236525020773582    0.911858837654743
   0.788174222077892    0.317488024876065    0.847313538471124
   0.328438026191693    0.055574861913643    0.366854285711790
   0.282887673475178    0.115856359274505    0.277562254770806
   0.985059588561742    0.942153235748576    0.690415619904175
   0.855745175014172    0.933012326635863    0.668433971498170
   0.914837735267739    0.980422464570316    0.232125071729130
   0.825980132504042    0.014650638717693    0.146299038924280
   0.870469613031055    0.425607923755757    0.150583134898511
   0.761356846324084    0.555085703351649    0.076899013245907
   0.648023806037937    0.532475278238080    0.107966351432122
   0.864401363932637    0.660763140656472    0.136778825648212
   0.159055852729967    0.761853467229441    0.642381485718079
   0.280800291743638    0.737761974990686    0.645384574401340
   0.329164168355132    0.800962167296226    0.523282744220401
   0.449114645652514    0.834407767694055    0.505839937556717
   0.371777199129942    0.270772782583343    0.015535415921232
   0.260740736436215    0.310876855697824    0.054479784394827
   0.489431043140067    0.170843724566020    0.413892727867178
   0.588128460266187    0.234314413161630    0.437506932724117
   0.609418418966639    0.409781225798577    0.067065535459592
   0.800702234257383    0.473445792276971    0.008867045126684
   0.627337957996671    0.463995078300015    0.737154189898268
   0.620018444733750    0.473260575605445    0.846272720047211
   0.352080538424234    0.025237370488242    0.512994654414802
   0.461494126967903    0.081703870788586    0.577815079027960
   0.694755405555310    0.684648762566085    0.921284431074093
   0.765069654282218    0.601752975858939    0.888524125297652
   0.940016252611755    0.854095367131423    0.921364494029778
   0.687425652936710    0.815526327150739    0.039604742288991
   0.641633831038615    0.957410292503762    0.371372019947613
   0.535771733413312    0.030968427353224    0.353020862659424
   0.867831854581249    0.541327702391187    0.241232596860892
   0.769524853624424    0.593149728091266    0.270569119514195
   0.084387651791280    0.048141743786980    0.347224304667787
   0.073946850421394    0.033884923682736    0.455603344244216
   0.848227373219269    0.671024011009599    0.019892878676673
   0.362288234010179    0.776444276964749    0.015680693793549
   0.143291763719268    0.994160478120181    0.752220582468192
   0.105274692003928    0.886608221701424    0.832174361396030
   0.524859479951280    0.449420258493184    0.148240201677130
   0.462361275313527    0.554897155445024    0.141509090639127
   0.319072008978856    0.472700261861729    0.915840150087472
   0.282851798900733    0.372669934297384    0.796539067665425
   0.042788341406670    0.507923409308590    0.308505859298235
   0.054217256614240    0.543937391968046    0.202204817344373
   0.139835407584500    0.624954362079138    0.124299922237035
   0.011399081138939    0.631437611829562    0.086068405207062
   0.118206176471470    0.268987906817093    0.360862665246301
   0.185521520300353    0.175562752207809    0.385696738409868
   0.150784610781244    0.470806121584218    0.892403539423145
   0.815574521986287    0.788383423560946    0.081256621570358
   0.321041904331499    0.641573893989972    0.102303716929996
   0.511600749739384    0.759868051110207    0.973230732413007
   0.535444099002233    0.325650217116579    0.955740615820964
   0.638486590735841    0.361431679566097    0.916684450347430
   0.388686054703745    0.040391625328260    0.811590903334316
   0.384068948636523    0.068119094053292    0.696161956587245
   0.634585739108663    0.726002715089855    0.486864289214181
   0.769717255709832    0.756183705090287    0.530122304171105
   0.807960086802484    0.902138439734759    0.865240362094179
   0.905677754207769    0.888906773920000    0.789566312070262
   0.666259647088082    0.943818853298269    0.624773458227662
   0.691678918088297    0.042536141235840    0.623848367166968
   0.593390056570151    0.688992693135684    0.038490411514858
   0.418566741723339    0.560090550964966    0.869636546206370
   0.743672407077833    0.078673113095165    0.226970473073081
   0.746712372864284    0.147638340863701    0.305876155126489
   0.268363427813416    0.457467189999259    0.079371502886488
   0.154486356132538    0.405177458891226    0.087406184412063
   0.870369665241580    0.072491673244746    0.461022878499079
   0.870776625556356    0.972240951166225    0.483458702217336
   0.134656477795804    0.983333964047179    0.617696620790108
   0.171144448191495    0.084847890475386    0.708964751046423
   0.537533797560941    0.285121078403416    0.093884005372079
   0.494372841243047    0.190397408352392    0.066765372160276
   0.881559410057665    0.203288621939994    0.415689049454742
   0.762962257999659    0.170873039434895    0.441753908600712
   0.851629708749203    0.453392423225691    0.047792344059926
   0.917324593348884    0.399121273480544    0.906800314545517
   0.618101513661034    0.844767908853144    0.525096534089205
   0.557949913088750    0.934084984337865    0.479015936021838
   0.879236961659741    0.701411537586192    0.660896408142898
   0.895120886803141    0.799010063527986    0.629932423954021
   0.033007710977921    0.272006672064156    0.165100004454412
   0.986416767841450    0.720865950566603    0.859111906758973
   0.951001131370686    0.752985719394877    0.294884967000961
   0.030196026784289    0.227416757764843    0.657711358196714
   0.310607253730378    0.290945409851182    0.285410607963149
   0.650053072107154    0.729080776321687    0.697945176963879
   0.661537385729390    0.790768587892106    0.233150605406957
   0.333855392469096    0.240849630179604    0.813286782304747
   0.280830156403789    0.244678551802838    0.198513915087267
   0.673828615161838    0.810822623190406    0.740414935729826
   0.691408007516807    0.718220949897691    0.288621860331193
   0.305493900570202    0.318067659783358    0.757643028103262
   0.036974498375308    0.304626792404358    0.255996205889315
   0.972305908819143    0.660509300541899    0.786487527501625
   0.947715972652397    0.830949945660893    0.247662380047496
   0.037993129093891    0.203082085363832    0.757417396137239
   0.592981145035315    0.370146190586089    0.371981226255875
   0.367592011892319    0.632122513765996    0.630753433172324
   0.387005528451725    0.895862392807517    0.167750088287605
   0.597595902419412    0.115605184148011    0.851069218937829
   0.655850847512658    0.477738421826039    0.520972564026346
   0.352608922011808    0.538055763276571    0.476670091420250
   0.349291839466300    0.961341149921036    0.990655342950398
   0.651486201732914    0.054543444902171    0.029049678918434
   0.787328728201042    0.402377222666683    0.321807955462870
   0.120738439833748    0.597415707759539    0.602229913441755
   0.190724955831559    0.937136395688902    0.193330202629151
   0.801550780558871    0.093920842392072    0.819655426507010
   0.868004362012922    0.489626267401706    0.490023864583555
   0.150504841797330    0.483490798595658    0.469061927094964
   0.140091596611097    0.993707430146665    0.988166112873628
   0.848860905477646    0.003606648292462    0.000837189213802
   0.279742222384819    0.069522876524173    0.130205656986425
   0.678749036867864    0.956297659980567    0.858020139181442
   0.674359852721660    0.540997243869328    0.347638448502197
   0.306683699889989    0.457740351277409    0.639740863870558
   0.806206079633091    0.175626045674698    0.982023100637388
   0.191833905150548    0.834587654389422    0.043244622607974
   0.191315522075932    0.656006136934549    0.453264050248093
   0.777882137290617    0.319775250895303    0.513396424883334
   0.436529481119552    0.392985138427476    0.438712971974763
   0.532266561507772    0.606045605408007    0.571613111342533
   0.546268192600782    0.913977649277975    0.103313238016686
   0.450784811655190    0.102789256473656    0.929996736342788
   0.466743066008598    0.078627808297813    0.122209551248589
   0.504183732199316    0.931759782238494    0.889870638643274
   0.507281331267995    0.580644271528173    0.392127249441524
   0.489842318897401    0.428075036470362    0.617195863394547
   0.001105600620565    0.139685350187429    0.036174044637864
   0.996688967060059    0.815279815753384    0.013699208424836
   0.999491247095193    0.667892650016176    0.467211744973575
   0.955059969482319    0.319917161510537    0.484642906116431
   0.973825436734681    0.437469119450629    0.362653164073452
   0.976709727109698    0.523750773512790    0.659231098664637
   0.010109688816318    0.968636554788690    0.124549573089763
   0.986813141648367    0.059183189148595    0.873843490605122
   0.164167790404642    0.945671020013528    0.566005065219284
   0.760655757266564    0.931899694112668    0.397302227759020
   0.267060729984351    0.663572038092274    0.193916845740811
   0.295419901743629    0.504637479006556    0.296587396576857
   0.850295119225831    0.521717387608125    0.838768637564316
   0.762847830743223    0.406134855858790    0.699954029306535
   0.232818677365111    0.179875369167474    0.580571428238699
   0.080447800581915    0.115186114772509    0.259217648088082
   0.041113355101328    0.416483004571521    0.031318954220584
   0.305224489538392    0.958516262556757    0.414855666870560
   0.597873150103546    0.114759716679787    0.623470615585142
   0.386030160578809    0.897814496575757    0.660049196502734
   0.427408633328385    0.552224838648297    0.939400494410587
   0.995408408275315    0.835733599263611    0.483591170016743
   0.996719908920633    0.375201672972917    0.766493623931778
   0.072530678723047    0.502935884117790    0.894754478940095
   0.163338897112481    0.686700803387306    0.782207798597705
   0.094771530395351    0.384938206921400    0.606988564389686
   0.722094824919426    0.288782105777641    0.865313146599348
   0.332273783089692    0.115385988878472    0.342776443556926
   0.929123720811363    0.899953149509562    0.698429193923251
   0.853677013717464    0.025351698476853    0.215640109153467
   0.891958923507746    0.474188657704134    0.107807681210855
   0.686619690657463    0.580930091499701    0.079518527586929
   0.223442419189039    0.780641633189975    0.613940212478350
   0.376406112673238    0.798303841686916    0.470852425922114
   0.283635288843370    0.274960145103271    0.001604658150103
   0.570476345372358    0.170124844031573    0.437148832958687
   0.613527348879758    0.405422637794541    0.138921601480379
   0.626791727842696    0.507972045341041    0.786247338634568
   0.384506342624357    0.060166836248741    0.573053516699822
   0.771230189463678    0.665389559962498    0.911116435702022
   0.762993910244723    0.844514734985590    0.071837505971969
   0.553019343901052    0.967477284974104    0.350618973988856
   0.846637959571408    0.601844251700662    0.260139827768570
   0.080889533369419    0.001435955539471    0.398117414216910
   0.362322018285034    0.798357141448506    0.947603308143101
   0.172228258221399    0.908061375741466    0.807056428662305
   0.457631342217758    0.495315350704436    0.166816263086290
   0.252314032968945    0.432121820869095    0.887403243918054
   0.090803392841573    0.546647018597886    0.272037910828500
   0.075090768754395    0.587070224034888    0.092681605346692
   0.188432777807599    0.240978215854440    0.402651161043869
   0.894199057541674    0.692317265764870    0.087549569887245
   0.378530948466372    0.662051662392914    0.060995307728521
   0.563849817821037    0.383177316047865    0.932813496692818
   0.340245576876718    0.047540589100945    0.746849085986741
   0.691416434816044    0.772793243295823    0.482979052328274
   0.889211577108878    0.891618399290900    0.860181838984953
   0.729238654775541    0.985732453318736    0.652395177939191
   0.598111644867590    0.739141106321831    0.992656916842538
   0.686619637897787    0.119408122137470    0.250278983008312
   0.241647574115746    0.409857844205863    0.117597925001099
   0.905394977948728    0.028163260900734    0.514116991484504
   0.110627984191890    0.043417586043138    0.704433915599670
   0.502651546944005    0.249322293531381    0.036870301214308
   0.826538854347178    0.153134878777687    0.408461548091488
   0.972481519279873    0.362394406509820    0.956250107357145
   0.561582131037392    0.896761826284351    0.536067342553286
   0.875470930171551    0.739354305368192    0.604636169182633
