COMMENT
    1.000000000
  12.239000000000001    0.000000000000000    0.000000000000000
   0.000000000000000   15.074000000000000    0.000000000000000
  -2.809764000000000    0.000000000000000   13.358706000000000
  Al  C  H  O
  8  48  128  100
Direct
   0.981485048685726    0.488658617487064    0.487655016885617
   0.023406327229256    0.007147008093406    0.027485596284550
   0.220937669729979    0.433378665251426    0.434885684287086
   0.748937810384789    0.549202600504179    0.543372988371778
   0.779769373867947    0.926529122993233    0.048512034024852
   0.260344114885583    0.080323072840653    0.971793226080430
   0.474282479667124    0.504469948255274    0.475742186406378
   0.531185573635577    0.021446464110389    0.010698491305969
   0.981160140024589    0.838941223298395    0.118842348952062
   0.048008371761138    0.177821414355845    0.913142335792104
   0.002870689686132    0.336652514262969    0.381012202828627
   0.958893821757341    0.637952102958737    0.594463266127722
   0.070994973248260    0.564166113838397    0.319062340319489
   0.902324713591084    0.419632479766485    0.666804105128146
   0.887658187001505    0.075668037680775    0.165440425142974
   0.012985776399332    0.930409977444607    0.754534159221709
   0.623403947136059    0.898029720047764    0.170007484257832
   0.411438926983251    0.093969085843174    0.816104493953232
   0.385181988211373    0.413249303436381    0.313849260549637
   0.582708749794457    0.580011277696696    0.669964590881781
   0.585052580819771    0.674247047897041    0.437207016907176
   0.398640460600652    0.331984874618548    0.546131489082850
   0.457638308105074    0.180593074167441    0.083154760648224
   0.606928569153217    0.803091415682632    0.942516438343654
   0.981489814969105    0.686725487594534    0.191387549063510
   0.023971983221735    0.318600238821812    0.803947627861561
   0.976113056161615    0.202084383707045    0.276908556861720
   0.959714590600330    0.776038211489983    0.692167340160042
   0.591635432044639    0.842928220777498    0.250973410149157
   0.431833041755751    0.145222900358233    0.726913220487074
   0.447079846660638    0.347108265888284    0.273087078943125
   0.566359240538638    0.637832692052541    0.748070209794272
   0.032409872445561    0.760070319755871    0.163023274859107
   0.993929595044053    0.254685551280350    0.863511780257758
   0.938087673906515    0.272947459201274    0.322751320374893
   0.004595621399972    0.719125646809075    0.633357751866086
   0.071649950742062    0.640506832957410    0.255187890204336
   0.923045771219892    0.366595462385565    0.759781673464481
   0.883389742206793    0.144620538675866    0.243083424397543
   0.033099402005699    0.853184290831896    0.704590699129092
   0.643884744247725    0.774505771527133    0.306597061122537
   0.367106289389368    0.194739949582062    0.654789468381144
   0.408866763241929    0.272506302242271    0.224994097482196
   0.643192440917470    0.686519835478307    0.812780818740977
   0.169919376966336    0.677219052673477    0.242316883087329
   0.846235996161835    0.344244394321348    0.814375284552261
   0.796698019511573    0.174313387289372    0.285467769108774
   0.121506270306084    0.834383707045243    0.658298790316966
   0.569813875053817    0.751499270266684    0.370967816793034
   0.438155309865144    0.253786652514263    0.611383318114793
   0.484572690370222    0.246002388218124    0.163300247793461
   0.574661943218686    0.738649329972137    0.864911616439496
   0.479463604850887    0.807622396178851    0.347486500563752
   0.544884762890282    0.230336340719119    0.655925057411998
   0.578878981864918    0.298937906328778    0.192923625985930
   0.465926537208691    0.713672548759453    0.833883162036802
   0.179105142258623    0.475824598646676    0.587959642198878
   0.797225834284162    0.535169165450444    0.388116932882571
   0.847983453846752    0.965775507496351    0.897818995342812
   0.211168279548065    0.004240540002654    0.134402239258802
   0.311154120306553    0.578448321613374    0.502752287534436
   0.642076731150639    0.425187077086374    0.467162762620871
   0.677810401437617    0.027014461987528    0.922394728950544
   0.361843440992384    0.888456945734377    0.111429954368335
   0.892337056550146    0.668707708637389    0.168097119586283
   0.102514214007274    0.343736897970015    0.792531851513163
   0.056887095084447    0.189489186679050    0.263756833932867
   0.883492813944891    0.764010879660342    0.722145543138684
   0.716042830090417    0.736214674273584    0.295372920101692
   0.274105330984604    0.196018309672283    0.633613764686490
   0.328352651948191    0.240442483746849    0.216921459309008
   0.732655951621059    0.700046437574632    0.818170562328417
   0.255948302630243    0.659351864136924    0.273906020538217
   0.769360261476949    0.372368316306223    0.832835156339244
   0.718109299562006    0.145463712352395    0.285863765547352
   0.200411239081144    0.866405731723497    0.666485211965890
   0.403769486289393    0.797724558843041    0.377421286163495
   0.624363071346490    0.255966564946265    0.657642289604996
   0.647716162631923    0.307761045508823    0.156482222155349
   0.391060502382674    0.742324532307284    0.851377371431035
   0.667208845573692    0.744639777099642    0.578158543200217
   0.679484318697751    0.844639777099642    0.584632224109132
   0.010647462946508    0.477741143691124    0.116011984993157
   0.021273063427566    0.401262438636062    0.190345531969938
   0.600173988170466    0.438760780151254    0.764797129302793
   0.636358633701834    0.413851001724824    0.660885867238938
   0.750476527426507    0.556954358498076    0.902040961152974
   0.577131214863149    0.499339923046305    0.897018019559679
   0.882552363945693    0.887660873026403    0.345394980621626
   0.983685845556761    0.927564017513600    0.311709831775623
   0.528804359937594    0.038325195701207    0.615626992614404
   0.570875631558498    0.995044447392862    0.719148246843669
   0.234273550942402    0.311884038742205    0.054112726187701
   0.165575446803473    0.375303834416877    0.105460064769746
   0.031423234254219    0.131862810136659    0.660332669945727
   0.910450490454811    0.170725752952103    0.592043870117360
   0.347434281619591    0.765768873557118    0.531246813875536
   0.247355854557076    0.750942019371102    0.452710015476050
   0.454336748649172    0.917686081995489    0.790503211912890
   0.332450256892724    0.881524479235770    0.777253425593766
   0.130733903090594    0.970830569191986    0.898889458305318
   0.122344638899686    0.033212087037283    0.729198621483248
   0.245624119211238    0.563768077484410    0.079534649538660
   0.265223232370583    0.471233912697360    0.125219463621701
   0.410637487377748    0.053622794215205    0.462765630144117
   0.506054505780447    0.122909645747645    0.469278236978941
   0.954398202439646    0.969802308610853    0.497436652921323
   0.911385644408171    0.067645614966167    0.492838153635539
   0.066549152620183    0.270843173676529    0.639460139327866
   0.155493650286172    0.328996948387953    0.601181731224566
   0.858380057138452    0.485741011012339    0.026590674276386
   0.968982195506728    0.479225819291495    0.971673454000709
   0.225533549822671    0.563761443545177    0.704485898559337
   0.343469857156535    0.521139710760249    0.683579682044054
   0.043723494692264    0.637396842244925    0.799156744672725
   0.084158448693010    0.545647472469152    0.789327948380629
   0.676566672470273    0.830277298659944    0.728875985443500
   0.724448037071699    0.842450577152713    0.851160284536541
   0.728692345459342    0.427146742735837    0.091127089704647
   0.793578010599923    0.368895449117686    0.178588405194335
   0.280655405570176    0.100408650656760    0.308699061121639
   0.234181595027361    0.163886824996683    0.380013603113954
   0.130962619514268    0.432796205386759    0.976950911263411
   0.114546437114458    0.534588695767547    0.951102599308646
   0.719739108522419    0.569982751757994    0.004874768559170
   0.708834425255275    0.621060103489452    0.162527717879262
   0.464280242269579    0.031325859095131    0.227918033378383
   0.443064634322430    0.046758723630092    0.332742557550110
   0.301543629992561    0.244188005837867    0.888349515289879
   0.302406577479005    0.344878598912034    0.850613824422815
   0.610248621039261    0.251103224094467    0.966890056566856
   0.425543042135311    0.288239352527531    0.856969230403005
   0.550006867414373    0.221807085047101    0.365519684316729
   0.562809610208484    0.269445402680111    0.464436450656224
   0.499481843748765    0.543184290831896    0.058541673123130
   0.514531877400407    0.446441554995356    0.098618833291189
   0.511953457635355    0.410551280350272    0.870061815867495
   0.435194840284465    0.494726018309672    0.882750170562927
   0.603671017271142    0.028782008756800    0.422811161500223
   0.683981247768129    0.992848613506700    0.357683596000990
   0.889315755071834    0.269982088364071    0.971546196166006
   0.872556583790807    0.324850072973332    0.066347219558541
   0.180829472099046    0.899953562425368    0.417452109508211
   0.088680994341646    0.819331298925302    0.393325521199434
   0.018320139808466    0.681876078015125    0.445492999097368
   0.921452259644015    0.718296404404936    0.354711002697417
   0.132231636439393    0.179510415284596    0.138578541963570
   0.037910807365079    0.252717261509885    0.112962288413264
   0.140185313947061    0.042446530449781    0.345682433612956
   0.031790345282153    0.047170757595860    0.395297269061839
   0.379239350489865    0.657879793021096    0.023813534035407
   0.214528684471601    0.645260050417938    0.910776837217617
   0.321674760042993    0.856381849542258    0.948520013839664
   0.204747108534933    0.833740214939631    0.880160099338963
   0.508487585361676    0.599705453098050    0.252462326815187
   0.382611856962438    0.600593737561364    0.221184596771574
   0.228518393320685    0.461581531113175    0.894465377110627
   0.277458250299755    0.474937640971209    0.790967328721809
   0.719683018310079    0.168522621732785    0.934559080797197
   0.670995225860376    0.179313387289372    0.887466196201937
   0.252439724468491    0.050387621069391    0.492496803208335
   0.141436663121070    0.011962451903941    0.511598952772821
   0.765033091525234    0.062329972137455    0.697247173491205
   0.863513637910335    0.131936446862147    0.730817041710477
   0.473730388397875    0.745223563752156    0.027292763236200
   0.257531820039169    0.818031046835611    0.115053059779892
   0.193275788591878    0.065456415019238    0.636100532491695
   0.213757290584374    0.108112644288178    0.752857350105616
   0.713962988084354    0.988058909380390    0.525123466299805
   0.654525171139617    0.974479235770200    0.619416281786574
   0.461984839997220    0.680662067135465    0.122359905218365
   0.621480091651266    0.661536420326390    0.070171317491380
   0.813318541284420    0.214529653708372    0.430013206368940
   0.729850457418040    0.189804298792623    0.495959713463265
   0.954375012527302    0.607309937640971    0.929670882793588
   0.077909432382179    0.654200610322410    0.958925213265417
   0.066111247200758    0.854935650789439    0.983500946873148
   0.020905745049479    0.767666180177790    0.923727193337438
   0.499005962617939    0.818442351068064    0.567543742634953
   0.398574199439857    0.863294414223166    0.611606393613274
   0.820342090871799    0.876184158153111    0.523238553195197
   0.905956117450549    0.815908186281014    0.476159891534405
   0.650734298777547    0.544848746185485    0.255443903024739
   0.760615223781067    0.509478572376277    0.226438848193830
   0.131206621863794    0.467614435451771    0.515189120862455
   0.831840170331657    0.514266949714741    0.454996165047722
   0.880182013796214    0.966830303834417    0.971126993886983
   0.203345872891110    0.065699747910309    0.113721343968495
   0.333768656706393    0.520224890540003    0.486184814607043
   0.623249845245270    0.487518906726814    0.474927736264276
   0.666862933637987    0.997134138251293    0.982123567956357
   0.382273675694746    0.003844055990447    0.002725323844989
   0.711791795447147    0.874718057582592    0.143467488542678
   0.317476566207978    0.096176860819955    0.843307727559840
   0.293532918239462    0.388398567069126    0.334867763389658
   0.678608631346005    0.587985272654902    0.648581531774110
   0.879843885034036    0.833620804033435    0.087270428737634
   0.154058030491393    0.177189199946928    0.920530775959887
   0.094784167393412    0.352068462252886    0.358074352411079
   0.876606108754149    0.605544646411039    0.622593984776669
   0.159759908565385    0.519178054929017    0.342563119511725
   0.801033971614640    0.440728406527796    0.631321626510831
   0.814087969517297    0.014798991641237    0.148646882415108
   0.104246229229239    0.976734775109460    0.790533154932821
   0.049396640490501    0.906209367122197    0.116752326160932
   0.988799341886972    0.117065808677193    0.937418639200533
   0.959416917757088    0.370825925434523    0.450039098098274
   0.008434375449490    0.601888019105745    0.530175602337532
   0.984164483550387    0.547854584052010    0.353833672213461
   0.984426402657527    0.445614966166910    0.630727257565216
   0.974844249102100    0.081201406395117    0.124999382425214
   0.916611892187408    0.950577152713281    0.762431630728306
   0.686140688410513    0.660904869311397    0.480006821019940
   0.293940294388205    0.346846225288576    0.523850139377272
   0.352705938062389    0.168437043916678    0.048074491646122
   0.709109374575069    0.835955950643492    0.953535469677976
   0.499431317032431    0.630856441554995    0.454735660774329
   0.473371162736629    0.378821148998275    0.514854507614735
   0.537974028325494    0.142545442483747    0.050731710092280
   0.539900825901796    0.820226880721773    0.997851139174707
   0.560123422215442    0.966166909911105    0.136474296237974
   0.494922712117157    0.049125182433329    0.863908525271834
   0.432015118753414    0.487936181504577    0.336299788317821
   0.501703062396199    0.529773782672151    0.633531421381682
   0.147959279929316    0.753462916279687    0.187212743509738
   0.879320015387291    0.266670425898899    0.868100548062065
   0.825813990769411    0.261231922515590    0.331564299715856
   0.109011576388845    0.750563884834815    0.620163360133833
   0.490818219425060    0.870167175268674    0.278665463556126
   0.542918656028607    0.157481756667109    0.717993194849860
   0.561267268380714    0.354641767281412    0.270303875240611
   0.456753367266206    0.648304365132015    0.761645626455137
   0.629684765757957    0.797890407323869    0.601827003304063
   0.070454074204198    0.436385829905798    0.155332410190029
   0.621178570635324    0.387364999336606    0.724507298835681
   0.704684333648729    0.529167440626244    0.946304230364827
   0.938077484271634    0.873895449117686    0.305908371664142
   0.558650747699587    0.984410242802176    0.647490857273152
   0.205886471196977    0.372740480297200    0.049568049480242
   0.959046547741287    0.169349873955155    0.661084239745975
   0.293064174936222    0.713460262703994    0.502833133688248
   0.387214651801469    0.904743266551678    0.740197441279118
   0.141887731790948    0.001139432134802    0.968259949728664
   0.283401561007529    0.532085710494892    0.140902120310156
   0.490639801731839    0.060167772323206    0.482069146517634
   0.981515999377453    0.033336606076688    0.506367907191011
   0.122458213417987    0.269572110919464    0.595655746896443
   0.924242862666614    0.513687143425766    0.013313714666675
   0.263667477038097    0.511061430277299    0.686120347285134
   0.100247511429855    0.605721772588563    0.771526823032111
   0.731330829892020    0.859207907655566    0.781160989694661
   0.797464228375610    0.425917473795940    0.145024525579049
   0.266360046610778    0.105033169696166    0.376579887303456
   0.087915738861084    0.473106673742869    0.922896274534375
   0.703464338543954    0.652384237760382    0.097534895969714
   0.455814645386115    0.078948520631551    0.274936060423816
   0.331909666671472    0.282617089027464    0.842342065167090
   0.520199148442025    0.310049091150325    0.861722684816928
   0.581337715565788    0.211730794745920    0.436770597391693
   0.554348012120773    0.500179116359294    0.091849465060463
   0.503939867402184    0.476350006633939    0.858264266014987
   0.684360525704405    0.021416810402017    0.421817801814038
   0.913241206808230    0.274025474326655    0.049171079893517
   0.166845598464598    0.835816637919597    0.395081679318341
   0.985062957266289    0.735451771261775    0.405509336009042
   0.118639320795097    0.243029720047764    0.144473574012333
   0.061113302866791    0.018759055327053    0.341231403700328
   0.202458728449697    0.625689929680244    0.978275889895324
   0.282670653497359    0.849595329706780    0.880152613583980
   0.447987271109492    0.642025341647871    0.236310313289326
   0.290948217888426    0.446587501658485    0.860113247495678
   0.589031352470307    0.314381716863474    0.960092991042695
   0.222753690079655    0.011389876608730    0.535899959172692
   0.786577814841454    0.113598248640042    0.745687493983324
   0.318488533130918    0.836367254875945    0.083110594693827
   0.155935829546566    0.090545309804962    0.694296288877081
   0.735224868299122    0.967122197160674    0.599981764700862
   0.459024305938227    0.678214143558445    0.049583694708155
   0.812199930363366    0.190431206050153    0.500851654344365
   0.991945471011375    0.662266153642033    0.919490256017312
   0.066484228285818    0.821560302507629    0.922387243195561
   0.418167053803314    0.838503383309009    0.551130476260201
   0.856623128567904    0.871208703728274    0.467085659344550
   0.730538056089456    0.557388881517845    0.263849657294651
