COMMENT
    1.000000000
  12.228263000000000    0.000000000000000    0.000000000000000
   0.000000000000000   12.228263000000000    0.000000000000000
   0.000000000000000    0.000000000000000   12.228263000000000
  H  O
  128  64
Direct
   0.434662715383207    0.296755148298659    0.085661389520327
   0.329042644895681    0.268271953261064    0.169903934843403
   0.178873319947404    0.865936560245719    0.346185717464533
   0.212054647499813    0.755718943892522    0.402353138790031
   0.102057831108147    0.027608827189929    0.375543116794266
   0.236912634280110    0.053931208381763    0.393253727042017
   0.730083250581052    0.182698065947715    0.796396021250115
   0.763257218134743    0.213849669409302    0.918184373365211
   0.887877534200892    0.270150388489355    0.593797336547309
   0.018634453642353    0.233320137128225    0.556093698671676
   0.892089089022701    0.977734940767957    0.950674678815789
   0.869395759643050    0.852304207065223    0.960725165953660
   0.003059175289246    0.105827786006892    0.915477529392359
   0.961493876930845    0.046469887015024    0.806062970677029
   0.758157556800995    0.775624469313426    0.607184356437214
   0.726337011233730    0.851666340509687    0.496643717918072
   0.050811059592029    0.740894270919754    0.433440955596065
   0.938849614209312    0.683693178663233    0.426720458989147
   0.138721255831675    0.991588093909986    0.850791318439913
   0.256957999676651    0.022375213879518    0.864538160489352
   0.796167861289866    0.462143315039920    0.654669432608703
   0.732465436832688    0.513000906179398    0.759197769953100
   0.450934854770461    0.580765232151124    0.985152183920153
   0.466179047670139    0.681025588016875    0.065243526410906
   0.475810014881100    0.732810538994786    0.902237709476808
   0.435244155281907    0.783887294540525    0.792366013063344
   0.454009698679199    0.166966477577396    0.198398578767892
   0.549214553203509    0.122070485399275    0.262402763172496
   0.333258288605667    0.648204082624000    0.496823628997839
   0.274695596586367    0.532833649390760    0.543050963166232
   0.535582200023012    0.670589927612777    0.420305811217832
   0.594373052002562    0.722405954140829    0.529519196634878
   0.470448664704055    0.395640819959466    0.504015165522691
   0.369799046683899    0.461657555124550    0.459157608893430
   0.370939846485147    0.463962870278469    0.899277354437012
   0.301818827416453    0.485811435360852    0.010782316343703
   0.940329791729210    0.766808008627227    0.797452589954927
   0.957593077610451    0.690492999700775    0.898688554539594
   0.512139786329424    0.557492098428043    0.570480042831921
   0.621964051640041    0.508526844736656    0.618917829948538
   0.894599666363080    0.960586143755659    0.456252044955199
   0.861545094344144    0.900193265388551    0.350544472260696
   0.941818147025461    0.443161060569273    0.098169298452282
   0.069763465178987    0.434063284376530    0.072855727751358
   0.581928929726160    0.377742938633230    0.182564768193160
   0.566846656798271    0.421080246638464    0.063534044042069
   0.967774409169970    0.534296653580316    0.819691234969349
   0.000245932721597    0.505806916321639    0.938776014222134
   0.879675224518805    0.204064142225269    0.065691750332815
   0.987556450167943    0.270479135098746    0.052156467357629
   0.353705182821141    0.218084122004900    0.741774199655340
   0.428368280924282    0.175763311600347    0.834411232404799
   0.640825275020663    0.992152360478344    0.773319971937143
   0.670003581048265    0.935995570262105    0.658952951862419
   0.817303324274265    0.730666326035022    0.320360299741672
   0.836872743087060    0.602568001685930    0.309927092670480
   0.426894645625466    0.845868297075390    0.135932634095292
   0.336081257002732    0.746391372184259    0.181668483904869
   0.256792808594320    0.741521506366031    0.761592222869266
   0.275298298703585    0.864137449448053    0.778575011021598
   0.216992388861770    0.168512895085753    0.629972548022561
   0.168555419522789    0.244162233017069    0.719883927913556
   0.477690085664661    0.344061948945652    0.796041105756394
   0.499615521844762    0.451939085706613    0.729562326227364
   0.714672231043771    0.292503522372720    0.598716269023654
   0.767691208473354    0.364023083245756    0.497997957682134
   0.069327262588317    0.821899234584667    0.982428984394595
   0.116228281972673    0.914847840613176    0.056749106557489
   0.649184598008728    0.118163961635434    0.654902499234765
   0.559015618162612    0.200570596167256    0.665833732885856
   0.032095400630490    0.584033889359429    0.531790165128114
   0.102419288822951    0.482571400369783    0.582518547401213
   0.506347467338575    0.684175667468061    0.248159530098429
   0.628936423758632    0.709399200851339    0.275979507473793
   0.184169247913624    0.328060493955683    0.290403469405262
   0.298824943493610    0.365768220719492    0.326794574176234
   0.903235398191877    0.714336124435662    0.616452230378100
   0.821809279044784    0.665392950740428    0.698981531555218
   0.180939026254179    0.722634114101079    0.240510855875442
   0.172851205441034    0.744047621481481    0.112704478142153
   0.571482638212803    0.894714155232023    0.875619047447704
   0.681148254662171    0.925814238702586    0.943838057784658
   0.713472551252782    0.528063552444039    0.979795740408920
   0.627209277392873    0.603925512560533    0.035564985803789
   0.003089670217266    0.293812784366839    0.365020771960825
   0.042537930366725    0.397440748534767    0.441425736427161
   0.815427342378881    0.463137732644448    0.241543709028829
   0.802303646887542    0.537767301864541    0.139656793446461
   0.378793782894594    0.838295676172487    0.499985157335919
   0.307028070953332    0.810703040979737    0.597493691458877
   0.051762134981886    0.017290517876496    0.537445097476232
   0.983017784292013    0.104713155089975    0.480559667386938
   0.265108789367713    0.572468060263342    0.863074338522160
   0.139772100093039    0.592256643482398    0.846105452589628
   0.241466837931111    0.016619776660021    0.556434711945597
   0.190327931285089    0.004754052149516    0.671370087476856
   0.395076553391107    0.130358661733069    0.367524807080122
   0.395353780009475    0.233652154848158    0.440428047712091
   0.384960644042412    0.046503334120308    0.989061161016900
   0.360723350487310    0.167265784191917    0.993493515800241
   0.985348450552626    0.244386304089142    0.727438557708482
   0.009807525402422    0.298734987953727    0.849875407488374
   0.006910744395995    0.071176421377263    0.103439875311808
   0.103479946415938    0.027480681434477    0.184967398885680
   0.783810423442806    0.144989521406270    0.296024055092698
   0.724292567145473    0.042090933111269    0.338577114345676
   0.226500689427435    0.435587621888734    0.174278227414638
   0.209611127925528    0.554287227875292    0.134353505481523
   0.811080854247247    0.315118345099382    0.335940599249460
   0.686356680421414    0.374763774707822    0.342602215866636
   0.939094947499903    0.145539885754829    0.324862983401649
   0.947133701654928    0.225750787335863    0.225357436293282
   0.974504719108511    0.922355039305255    0.192801708631880
   0.991383649501160    0.788486475961467    0.222275232385826
   0.580536254413239    0.515728194593132    0.299224018979638
   0.498545868697786    0.422049313136297    0.341416438295447
   0.221212121459933    0.488059506080299    0.708117743296820
   0.236657487657895    0.374385961440313    0.643985167803473
   0.488214883831007    0.014508601916724    0.137081611672893
   0.530843178626433    0.965811742845243    0.021093183880654
   0.612601315493460    0.440648847673623    0.849630074197783
   0.726660851177309    0.385399790632570    0.881449801987412
   0.742955070560717    0.850186162989789    0.139897220071240
   0.616777705876951    0.878391313631380    0.179317373203373
   0.812680427301899    0.024049777143328    0.691875043904437
   0.911781174480791    0.112870487002120    0.662906088951473
   0.688657088909520    0.142366090752219    0.074692701653538
   0.671325927484550    0.266601233552141    0.090109282078738
   0.372648183965294    0.247080881397464    0.105027999479566
   0.161907705125413    0.785775543100439    0.350526481152720
   0.180485159666586    0.019046858903836    0.347530143896971
   0.759005592208803    0.236465309913599    0.842499053217943
   0.956628100000793    0.220705099326045    0.604605903553105
   0.841697631135346    0.928758238189676    0.990296005246207
   0.998212092755938    0.029952169003889    0.876624913939126
   0.698240625017633    0.816434026647939    0.565146497094477
   0.990271471917148    0.716962008422619    0.480775560682658
   0.212789829593950    0.981725695628234    0.812901227263431
   0.757212205854585    0.526990628186522    0.677214744236365
   0.503002756810186    0.642485363620328    0.000399464748182
   0.498455913157903    0.782258281491002    0.842605364310532
   0.478157854472054    0.100421458059906    0.242408099989344
   0.307205528700192    0.575832397454978    0.476528023644895
   0.528800370093447    0.683811756420352    0.501150490466226
   0.409097350948373    0.391159398518007    0.449512739462669
   0.335491639327679    0.522530468963581    0.944279657707722
   0.951189878726030    0.765476666636954    0.877728913746785
   0.542807265430912    0.495260855936775    0.612433671078223
   0.824679678544696    0.941057613824629    0.411115626152300
   0.998367470506645    0.407933653373337    0.049595760248205
   0.569243563047344    0.355557449165102    0.104314897381582
   0.021431253155088    0.553555316891696    0.874711314272518
   0.958378144140341    0.194680143860170    0.069255461711937
   0.428504032011742    0.222436334579981    0.771547847801442
   0.677534495291768    0.002039758222407    0.703492392991548
   0.815973617839263    0.662432595700632    0.359466426261849
   0.412881208066918    0.764726764545381    0.148927938497888
   0.310237030394260    0.800225673916238    0.746749558788521
   0.235683514494250    0.232312635081532    0.677267899782659
   0.488447132679433    0.425581294743170    0.804779877567239
   0.780497606242195    0.334144759562335    0.575484841959974
   0.134315887710299    0.841476831173814    0.022900472454673
   0.628903712653220    0.194252446156907    0.631983463227770
   0.032367638805282    0.502799947956631    0.539626110429584
   0.564381875005469    0.659757645055557    0.294565957568953
   0.257281839620231    0.339948527440079    0.260858798997045
   0.852058873774632    0.734167232091753    0.672969660531508
   0.203766471166019    0.689339933234998    0.166006406633551
   0.612580053274942    0.955556811298547    0.918609617735569
   0.706575414676639    0.583118796185525    0.045138953913569
   0.062469542894195    0.339671300821711    0.388070652389469
   0.852107940432750    0.521545864690676    0.198576854292388
   0.318870308890151    0.787894404953508    0.521494344699652
   0.008719717591943    0.033848225213998    0.468132718440878
   0.212934576235398    0.604427628028609    0.807978205898908
   0.178653337763507    0.041530346542269    0.602179557309162
   0.359055084111292    0.160235349861219    0.430502680552422
   0.352401645270469    0.099790133725452    0.944214235496898
   0.033824264329284    0.244180224125045    0.794243630513999
   0.048240048484400    0.005097894934056    0.135123034236342
   0.709227467547926    0.116108068660283    0.307944799682506
   0.198896605347791    0.478650156608506    0.106237492602179
   0.766668986429226    0.382068982323982    0.352413911934998
   0.913048729815510    0.219214290696888    0.299253458974509
   0.933738503988670    0.850954873966973    0.228537773516975
   0.570500487272804    0.431343355961513    0.302706933928392
   0.208229083721866    0.450593023718904    0.638252546580001
   0.476595899188626    0.956055655656081    0.080033607389700
   0.695622101029394    0.458311209040892    0.864840738214414
   0.672061927356322    0.822406256718554    0.165180451221895
   0.891761977968580    0.037494286800995    0.687365000245742
   0.718397208172575    0.213029438441093    0.054348029642477
