COMMENT
    1.000000000
  12.239000000000001    0.000000000000000    0.000000000000000
   0.000000000000000   15.074000000000000    0.000000000000000
  -2.809764000000000    0.000000000000000   13.358706000000000
  Al  C  H  O
  8  48  130  101
Direct
   0.992539496447383    0.487106275706515    0.489432883693975
   0.997681186516391    0.009250829242404    0.013531400421568
   0.228133775228091    0.434249038078811    0.436719694257812
   0.765787146697301    0.553384635796736    0.561797677110343
   0.758155164542804    0.929799655035160    0.050780442357216
   0.251221586350312    0.059430210959268    0.955871025232534
   0.498385688083304    0.503907390208306    0.503644589528357
   0.506740967597917    0.996032904338596    0.998187998148922
   0.961732076968563    0.832804829507762    0.105076045539141
   0.044969909153993    0.169635133342179    0.905985954028781
   0.003747338410289    0.344199946928486    0.374385063942570
   0.977214069987111    0.652305957277431    0.587388479093709
   0.087665666519158    0.567292026005042    0.322853126642655
   0.905932061193474    0.426886692317898    0.673370609398844
   0.888901906483916    0.079586705585777    0.164309327565110
   0.975883342628222    0.914879925699881    0.765425932721328
   0.594643339457465    0.901426296935120    0.179954555478652
   0.417850606346754    0.087474459333952    0.819383254635591
   0.405570588070438    0.391057449913759    0.334223239885660
   0.598418522047985    0.589150192384238    0.692148625772586
   0.599251543315643    0.666949714740613    0.444083431434152
   0.411724418528179    0.338169032771660    0.566074288931877
   0.428437347663277    0.155630224227146    0.084991016345445
   0.599020414691250    0.814183362080403    0.950428881360216
   0.990191763477146    0.674260315775507    0.175978122431918
   0.023319450542178    0.317270797399496    0.804771060909642
   0.971454110431276    0.216771261775242    0.260600839632222
   0.003192332056159    0.761788510017248    0.717163773197793
   0.461597389377266    0.849489186679050    0.295113912979296
   0.555862896646859    0.170610322409447    0.738138858658915
   0.555220599126633    0.331272389544912    0.245734130236866
   0.464667100326000    0.699217195170492    0.738984000396446
   0.560083640806762    0.852627039936314    0.266489883076999
   0.447788330721301    0.144024810932732    0.737888085866999
   0.450561376436692    0.327514262969351    0.272916403729523
   0.569422678530509    0.654103091415683    0.767439600811636
   0.024375821866653    0.757264163460263    0.149914969309153
   0.988937646950801    0.248679182698686    0.856871915588231
   0.933819349332575    0.286888682499668    0.305724970667069
   0.038215182792976    0.725162531511211    0.638297601579075
   0.082523331564511    0.641887355711822    0.252980341059980
   0.922405790334162    0.359521692981292    0.753531068054047
   0.876851042899140    0.163158418468887    0.218658903040459
   0.034964191656909    0.851419662995887    0.722233875047478
   0.638606021365572    0.797485737030649    0.328895628064575
   0.376325610140882    0.202455220910176    0.668578977634510
   0.396495189835191    0.249477245588430    0.230835980670583
   0.630145445324338    0.667626376542391    0.865944650627089
   0.171554820781818    0.696517181902614    0.245607620977661
   0.835358176507553    0.325618283136526    0.789208176300908
   0.786962173589795    0.203047631683694    0.244771462146109
   0.117606276914311    0.855672018044315    0.664268679915555
   0.576385480450320    0.753091415682632    0.385819554678425
   0.442612133598364    0.264489850072973    0.637662060981056
   0.458469009025878    0.214495820618283    0.168698225711383
   0.584429896906300    0.717851930476317    0.935696915554545
   0.183792368070852    0.468303701738092    0.596697015414517
   0.795900748551702    0.496651850869046    0.404681411507971
   0.813541075522876    0.011108663924638    0.911510441205907
   0.180546793315635    0.014031511211357    0.115562091118706
   0.329967215444238    0.582234310733714    0.498980964174225
   0.657155456138435    0.420166511874751    0.529793828833421
   0.674663536160068    0.079097120870373    0.999161146296655
   0.338247455741453    0.917122197160674    0.982160996731270
   0.915851481647527    0.640481623988324    0.136704108915938
   0.104145078143340    0.344548228738225    0.799553489686800
   0.051423181596514    0.197960727079740    0.249996519123933
   0.946674981081453    0.730217593206846    0.755926509648464
   0.386786402438733    0.881716863473531    0.256412559719482
   0.632179441641823    0.148462252885764    0.785480270319595
   0.620634436202610    0.380172482420061    0.260963150173378
   0.416730030918695    0.684542921586838    0.667069849430027
   0.728458763290587    0.794931670425899    0.334037593162092
   0.282619495751843    0.196327451240547    0.644922494738637
   0.313265673211478    0.230877006766618    0.233979997763256
   0.718947256795212    0.650372163990978    0.889023233238309
   0.256579244608668    0.685829905798063    0.279992687914533
   0.742807031577945    0.334898500729733    0.781213389979538
   0.700568780060606    0.178196895316439    0.242056378813936
   0.164372792085900    0.906872761045509    0.635182030355335
   0.767308502079415    0.740049091150325    0.640740203429883
   0.738169187886064    0.835929414886560    0.610425890052525
   0.998303523797583    0.479469948255274    0.099380883148413
   0.981321725794609    0.398134536287648    0.155848178708327
   0.734007739235674    0.508234045376144    0.882540569423416
   0.646691317321311    0.483056919198620    0.940098539484288
   0.874500712756029    0.886632612445270    0.330570191454172
   0.950701464608459    0.930045110786785    0.272384166550263
   0.526249777191004    0.983780018575030    0.720989742569378
   0.527763648634436    0.033501592145416    0.610517216263312
   0.234196170691264    0.349230463048958    0.046123778755218
   0.228058131158877    0.347721241873424    0.153405576857519
   0.031962038582898    0.136223298394587    0.662886060970277
   0.911305199077364    0.159767148732918    0.586673589492875
   0.353644087156092    0.753237362345761    0.528724114446414
   0.263930586269452    0.705910839856707    0.572270996906437
   0.245016705459900    0.925315112113573    0.837618553773097
   0.209982309270987    0.001185730396710    0.747785751104935
   0.215079947837048    0.599898500729733    0.037840716009470
   0.184584583487606    0.497025341647870    0.063688878249136
   0.415514282181982    0.088126575560568    0.453543180005608
   0.521754292882225    0.140128698421122    0.483592497656584
   0.941436897338618    0.940327716598116    0.522480246215464
   0.931916658481001    0.039788443677856    0.538215303188797
   0.059169272825683    0.249964176728141    0.576460773970173
   0.149366261126568    0.313091415682632    0.557825735516599
   0.856764663434147    0.479676263765424    0.979930241746469
   0.934916075471870    0.558243996284994    0.976127478215330
   0.209609552434717    0.558547830701871    0.714043710521064
   0.312574100741434    0.531062757065145    0.668979465526077
   0.018732053718881    0.614994029454690    0.782418596531730
   0.034358328836728    0.530529388350803    0.707184513230548
   0.636761553698008    0.792735836539737    0.698498043148790
   0.667238237518016    0.840811994162133    0.798917200513283
   0.743166606972367    0.436186811728805    0.081610449395323
   0.789797468771292    0.358657954093140    0.147984393099152
   0.282958106517497    0.072899031444872    0.323252865958724
   0.265058748049321    0.171854186015656    0.360056580330460
   0.018299207894386    0.479065941355977    0.931976495328215
   0.083101389694018    0.510342311264429    0.842454351491829
   0.732704319925787    0.593872893724294    0.037899329470983
   0.739629560692371    0.589633806554332    0.159656182267953
   0.531211781392507    0.062170425898899    0.257790687211770
   0.430359570544798    0.023542656229269    0.290725763408522
   0.292269955830032    0.236993498739552    0.862987777408979
   0.309038741256903    0.352017380920791    0.874747898486575
   0.584986630668700    0.271982884436779    0.999917207549893
   0.417612148667062    0.296942417407457    0.865038874274200
   0.572439705149261    0.232872495687939    0.361574691440922
   0.639285873167935    0.242070452434656    0.473427590965772
   0.536359156560247    0.545045774180709    0.053812247982701
   0.517844545375022    0.438885498208836    0.066065830028747
   0.532579523667975    0.405486267745787    0.837693411322923
   0.452646717121051    0.470936712219716    0.862126915585986
   0.582761156224272    0.021844168767414    0.467834234842806
   0.676593000047308    0.985843173676529    0.413263081019973
   0.889653912992676    0.267801512538145    0.962915120671119
   0.866925013355354    0.336570253416479    0.042315026620093
   0.157281497087047    0.788748839060634    0.425192380160174
   0.062678141137096    0.849336606076688    0.361105334603516
   0.931527956312662    0.640837203131219    0.362973779047162
   0.813395097888146    0.664302772986599    0.326124401570032
   0.119399740765231    0.174860687276105    0.107181039840236
   0.054817723725093    0.262544779089823    0.082313361788185
   0.058432707923714    0.106606076688338    0.382689760520218
   0.029223582136530    0.019051346689664    0.422730315346412
   0.766551993896206    0.287621732784928    0.554327642213250
   0.677810428577898    0.296436247843970    0.619273303866407
   0.414879369895263    0.640047100968555    0.945413425521903
   0.238103855651987    0.714435451771262    0.973702093600982
   0.223141392139382    0.809081862810137    0.942097236064631
   0.342548101247443    0.801917208438371    0.892796053749517
   0.580450266832270    0.660739684224492    0.196611108890337
   0.449409470807295    0.632455884304100    0.196565445784944
   0.244010592527426    0.473518641369245    0.914310113569383
   0.294065407626340    0.481846225288576    0.818245419878243
   0.779942921580529    0.171052142762372    0.989556922654035
   0.739097638266753    0.167698686480032    0.936482919827714
   0.251711628313393    0.079152845959931    0.476114228429011
   0.175036436105134    0.001214083852992    0.494222269731814
   0.800957005414916    0.026267016054133    0.727813008235977
   0.864662529790924    0.116529122993233    0.735999429884901
   0.181096896406318    0.086192782274114    0.631329860841312
   0.201495669356129    0.127832028658617    0.743663345836041
   0.723786122562275    0.974247047897041    0.586137609436124
   0.677400604593147    0.934921056123126    0.677293893585202
   0.487260584206394    0.671732784927690    0.047385577615077
   0.501340413575984    0.712259519702799    0.948505042329699
   0.785711839492565    0.007396775905533    0.241606484939484
   0.816267424489990    0.041946530449781    0.357281610958427
   0.293880994998993    0.553322940161868    0.182314065449154
   0.359110025202714    0.566690327716598    0.307163732774716
   0.795724124913761    0.181848878864270    0.454211657925551
   0.753537105874043    0.095717792225023    0.489329580275215
   0.937741269858538    0.712763699084516    0.889457407027297
   0.134269634965387    0.667971341382513    0.924775199034996
   0.223900575727754    0.940659413559772    0.259313289775222
   0.147750327195515    0.016264428817832    0.277868979225982
   0.098162005617277    0.858531245853788    0.024195906399916
   0.048358932743354    0.885557914289505    0.914160398469732
   0.399036724837817    0.885352262173278    0.511092915736000
   0.467632677079193    0.869789040732387    0.622609704862133
   0.800290129741713    0.824532307284065    0.488215699933811
   0.886636206993493    0.783289107071779    0.426092916484576
   0.658191266059389    0.521864800318429    0.265977108860694
   0.760764835851922    0.482889080536022    0.233112398760778
   0.140383391654914    0.458223431073371    0.522445063167046
   0.843102198927312    0.513390606342046    0.468515438546218
   0.849052763784149    0.985584450046438    0.978365718955114
   0.153534835204002    0.023820419264960    0.041289178757284
   0.347715892117937    0.519261642563354    0.496039811041578
   0.645544615730673    0.480835212949449    0.507210054626548
   0.653744804866283    0.015906925832559    0.004083142484010
   0.363421521312744    0.980390075626907    0.004429553281583
   0.677315164520006    0.875361549688205    0.146919918740633
   0.338780686606704    0.115109459997346    0.862950348634067
   0.306454631480374    0.381706912564681    0.345451872359493
   0.699182425969835    0.592236300915484    0.677769987602093
   0.858575846952080    0.833945867055858    0.084245435149183
   0.151065488557889    0.165713811861483    0.912026958299704
   0.097850053259309    0.359449383043651    0.362127140158635
   0.882471230279807    0.638019105744991    0.606141792476008
   0.184691746546196    0.534678253947194    0.356059187169775
   0.813195173126417    0.464138251293618    0.650629634337338
   0.815796788453084    0.016143624784397    0.160400266313219
   0.253934587031844    0.941919862014064    0.776287763201017
   0.026736065067697    0.899681570916810    0.087381217911376
   0.987484830434873    0.113316969616558    0.941633119255712
   0.958753811632781    0.370258060236168    0.449214916474694
   0.029065347319803    0.599073902083057    0.540583047489779
   0.003527724057276    0.543237362345761    0.359627646569960
   0.987922175164228    0.444366458803237    0.631326866539319
   0.971990719100372    0.074176728141170    0.124243321171976
   0.976755580935638    0.941123789306090    0.851392342941000
   0.701447323455344    0.645348281809739    0.466819915042670
   0.309211234075547    0.344192649595330    0.527103448492691
   0.323259883432643    0.140240148600239    0.064075742066634
   0.691731264250438    0.847459201273716    0.941431003871183
   0.515449730791356    0.623363407191190    0.463903464901466
   0.490869415553068    0.388025739684224    0.552754885091415
   0.503212117181371    0.125969881915882    0.041961923557566
   0.517906585752193    0.857768342841980    0.967077200441420
   0.537158159035320    0.973630091548361    0.151588784123253
   0.478480750777222    0.019798460926098    0.852148404194239
   0.469164408554425    0.451588828446331    0.372744186450394
   0.520436304649909    0.539527000132679    0.647791036047953
   0.138221927266897    0.765841846888683    0.184449002770178
   0.877801926708406    0.264036752023351    0.865420647778310
   0.819367999442730    0.278589624519039    0.302304729215539
   0.121918084533839    0.770605015258060    0.614539312415439
   0.466065440882028    0.789060634204591    0.372278572490479
   0.555473807484010    0.247331829640440    0.681944793155864
   0.564378889112891    0.256855512803503    0.183514780548355
   0.421902183654273    0.755426562292689    0.789006060916379
   0.708071834846172    0.774698155764893    0.598025736923921
   0.034658381148390    0.447261509884569    0.166246640954595
   0.724329481828699    0.501129759851400    0.953962157711982
   0.931546261440517    0.871049489186679    0.292869683635526
   0.571740964361715    0.002829806288974    0.673610902133785
   0.260612499382163    0.382918269868648    0.106246069042915
   0.959420463116827    0.171920525407987    0.656406391457376
   0.304223923180530    0.700437839989386    0.517860786815729
   0.190365244439772    0.979673610189731    0.845276481120252
   0.190895483525294    0.557232320551944    0.090925722895616
   0.478451748891681    0.092569324664986    0.511516609468013
   0.985538569448881    0.994188669231790    0.528018207751559
   0.136731526203826    0.265485604351864    0.602345766124354
   0.937459185087858    0.494591349343240    0.990582471086646
   0.259765729813235    0.507265490248109    0.707540835167717
   0.070220738645900    0.570656096590155    0.762132200529003
   0.614494586297085    0.845004643757463    0.734858600825559
   0.806137211566075    0.420674008226085    0.136016168033042
   0.300023876994925    0.114665649462651    0.381431405107650
   0.093471508041293    0.469785723762770    0.907804992489542
   0.742109595366479    0.629311397107603    0.098413723604667
   0.500074264199368    0.053678585644155    0.317200633055327
   0.323532655538821    0.293376011675733    0.846571516732234
   0.519145363255007    0.310689929680244    0.872030569427907
   0.603515872639211    0.196536420326390    0.417284428596602
   0.554227810511624    0.492311264428818    0.096753383149536
   0.513073152305960    0.471454159479899    0.826764209048391
   0.664417390903715    0.002820439166777    0.478735739823902
   0.919059126979547    0.288608862942815    0.037713009029467
   0.144664090414615    0.846583521294945    0.391412162225892
   0.884228925656575    0.694155499535624    0.355954386600019
   0.130120649394425    0.238807217725886    0.120346985703555
   0.047139298535211    0.042354252355048    0.358265987738633
   0.688314926744598    0.303511344036089    0.549172951332262
   0.212712856780050    0.656062093671222    0.946618632074095
   0.309845470495657    0.814110388748839    0.952876723239511
   0.500854511056604    0.674731325461059    0.172814642376290
   0.316381099565094    0.461926495953297    0.892811025259482
   0.568333934891821    0.330772853920658    0.975266616392336
   0.223197088578270    0.047861549688205    0.533905754045339
   0.823158669417851    0.077242271460793    0.773705177732035
   0.147063520465833    0.090200344964840    0.693374043863230
   0.750382131171514    0.942987926230596    0.652406003994698
   0.493815311623495    0.653927955419928    0.973140661977290
   0.773468341232251    0.993830436513201    0.319795195732281
   0.366572418207107    0.551286984211225    0.237553697191929
   0.824836481848845    0.127749767812127    0.489569124434657
   0.965225627806428    0.652332493034364    0.907505562290240
   0.205889473204301    0.002517944805626    0.241664873828348
   0.094660484719605    0.833912697359692    0.953318382783482
   0.399254649998518    0.855744991375879    0.574641735509412
   0.871281315616640    0.838072177258856    0.465068248376751
   0.735672694532572    0.535957940825262    0.265797450741112
