COMMENT
    1.000000000
  12.239000000000001    0.000000000000000    0.000000000000000
   0.000000000000000   15.074000000000000    0.000000000000000
  -2.809764000000000    0.000000000000000   13.358706000000000
  Al  C  H  O
  8  48  24  48
Direct
   0.993580014543565    0.498111317500332    0.498698751211382
   0.001685107702512    0.997246915218257    0.003084078652528
   0.238338362976387    0.440985139976118    0.435197840269858
   0.764748515191560    0.561078015125381    0.565740424259655
   0.764529270921098    0.937256202733183    0.058668182382336
   0.234397417539392    0.067321215337667    0.938511559427986
   0.498668710790397    0.497656892662863    0.498891135114434
   0.500637241330969    0.000209822210429    0.998524857123138
   0.965692476496703    0.830496218654637    0.103143972178144
   0.019731441542205    0.163610853124585    0.890744956884297
   0.025308038099807    0.335708504710097    0.392826969917595
   0.971142695623019    0.660343638052275    0.619096640048819
   0.085574085405429    0.570976515855115    0.324868291883959
   0.918902632540008    0.441456149661669    0.678651060963539
   0.908603317374723    0.070365530051745    0.169870494941651
   0.082476134665366    0.927199150855778    0.824758026713066
   0.598693079009507    0.901844235106806    0.176902613172264
   0.412127597318138    0.098259254345230    0.813993511048151
   0.412799657454719    0.406400424572111    0.317896808268705
   0.586832693118044    0.596718190261377    0.683230097286369
   0.590717958894691    0.666379195966565    0.435327343831057
   0.408207574467211    0.337655565875017    0.562838197052918
   0.414528863399924    0.166610720445801    0.061969175756993
   0.591633678482894    0.835126708239352    0.938646303017672
   0.984108422281529    0.693293087435319    0.213826848199219
   0.005727198375519    0.307333819822210    0.787733482569345
   0.004524202873510    0.202167971341383    0.273532481364587
   0.990513558893094    0.794931670425899    0.726180365074282
   0.570596631676560    0.841846888682500    0.255306913708558
   0.437547545897208    0.144586042191854    0.725970015359272
   0.444045501184116    0.352845959931007    0.237793241351370
   0.561625584910296    0.656610057051877    0.759407385715353
   0.027259062508249    0.756129759851400    0.159108973578728
   0.964650445270045    0.245175135995754    0.844909679126107
   0.969373300475442    0.259365132015391    0.341188734896928
   0.027257095014955    0.733607536154969    0.667799710540826
   0.078515750623986    0.638278492769006    0.249084005591560
   0.917107336016816    0.367045243465570    0.748620412785490
   0.919398580603731    0.136859493167043    0.248533054024843
   0.083949711123992    0.852799522356375    0.760530248962736
   0.627537983709759    0.770731060103489    0.299540239900481
   0.370183763254769    0.194065941355977    0.655218402141645
   0.376669802373770    0.290486267745787    0.183083601061360
   0.631004711800649    0.713068860289240    0.823462991101084
   0.165809301089911    0.662940161868117    0.203198573274986
   0.826242751260892    0.342098314979435    0.788601830147321
   0.839572550674070    0.148086771925169    0.306430877361924
   0.173105277548057    0.832174605280616    0.715617216218397
   0.558011733210207    0.734304099774446    0.361879361668713
   0.442150185252845    0.253416478705055    0.617217715548197
   0.446313793467155    0.243501393127239    0.129069387409230
   0.560352215093451    0.756759984078546    0.878266203328376
   0.461000911134891    0.784469948255274    0.348363831047708
   0.551601724764833    0.225245455751625    0.651280146445322
   0.554143230778340    0.282479766485339    0.154517960047927
   0.454787933758803    0.717115563221441    0.857246203337359
   0.172431951872026    0.475769536951042    0.593037229803545
   0.801820518446448    0.549129627172615    0.408347934298427
   0.831890397204182    0.946530449781080    0.904825662006485
   0.169166843588012    0.058099177391535    0.087673910931193
   0.332796449083865    0.567935518110654    0.527113928549666
   0.671103486784502    0.424024147538809    0.501218456338511
   0.675841448490919    0.070023882181239    0.983485975363183
   0.329695904389258    0.923112644288178    0.984316894166246
   0.896818550124516    0.682393525275308    0.223848776969865
   0.090303375457504    0.322862544779090    0.776197934141226
   0.078366102908154    0.201753350139313    0.238502142348218
   0.903157562340928    0.802899031444872    0.732889098689648
   0.707031353034647    0.745177126177524    0.283972863838758
   0.277985127861448    0.190368847021361    0.633576335911577
   0.286538774934635    0.279143558445005    0.171711242091861
   0.721052314823880    0.726091283003848    0.832393496795273
   0.246263254490207    0.628339525009951    0.210443286947104
   0.736460080800394    0.363326257131485    0.779109892829440
   0.765148413879530    0.110901552341781    0.305278819670109
   0.257550277550182    0.855114767148733    0.724647282453854
   0.383138143047956    0.770684622528858    0.375863500551625
   0.628943430660028    0.245931405068330    0.638551368672984
   0.628101940120499    0.261913891468754    0.132163998519018
   0.384743499781350    0.720366193445668    0.893806630672162
   0.147635420697876    0.475369510415285    0.521855185674421
   0.843766055727215    0.528525275308478    0.470261116608151
   0.851899597913154    0.974558843040998    0.972369629214087
   0.149267339931663    0.025357370306488    0.026273727410424
   0.352024770008809    0.522223033037017    0.482841676431834
   0.648333672499075    0.481584848082792    0.522216747640078
   0.649996795419889    0.015793817168635    0.009353375993154
   0.349948623682121    0.984748573703065    0.976658966819092
   0.695756785652359    0.889445402680111    0.160649541954138
   0.323129586023025    0.119954889213215    0.838868674855184
   0.320403034490977    0.386360620936712    0.341890898714292
   0.686587298565176    0.605035823271859    0.668309490455138
   0.865588763710206    0.838304365132015    0.109988197958695
   0.124422821256584    0.160984476582195    0.896785961155220
   0.121093432703829    0.349884569457344    0.380325010521229
   0.872255597418140    0.649802972004776    0.628318341611830
   0.174465925514994    0.522925567201804    0.336846248431547
   0.832815911263075    0.492272787581266    0.670787275354364
   0.825067328524561    0.016936247843970    0.160792519874305
   0.160439405834416    0.987402149396312    0.830050455485733
   0.024134809060861    0.882585909513069    0.058010184519369
   0.959815618244741    0.103188271195436    0.917626303026655
   0.965429818200403    0.384182035292557    0.440996306079346
   0.023145240754343    0.608549157489717    0.570547776109453
   0.008231918463741    0.566511874751227    0.373883518358739
   0.001039437609440    0.448427093007828    0.634139264686265
   0.989691237208124    0.063829109725355    0.125537608208460
   0.004192362385154    0.931146344699482    0.870728048060942
   0.693299219154945    0.656286984211225    0.465569045385084
   0.308322732346399    0.363488788642696    0.552313974122943
   0.307479712839574    0.150520100835876    0.036993927405843
   0.697861343313568    0.852567334483216    0.960602022381509
   0.508015257482613    0.629390340984477    0.466942681424383
   0.485604187523445    0.376314846756004    0.528040665016507
   0.493242217810554    0.121476051479368    0.037751036664779
   0.511143166325384    0.877278758126576    0.966515768817728
   0.524893093933366    0.960441820352926    0.140039012760667
   0.479629278129739    0.036913360753615    0.852560120718279
   0.482658348598215    0.463399230463049    0.362516399417728
   0.511277087083011    0.543976383176330    0.642185702717015
   0.137943700555251    0.741196762637654    0.152793242099946
   0.852475213928512    0.261255804696829    0.844310818727502
   0.869279569425223    0.229994029454690    0.362611468506007
   0.134650239271659    0.754093140506833    0.659298887182636
   0.466630740404188    0.854424837468489    0.281718903013510
   0.550922969769859    0.153378001857503    0.719592900689633
   0.553593743091103    0.352772986599443    0.223845782667872
   0.454499299061017    0.652911635929415    0.779559038128394
