COMMENT
    1.000000000
  12.219991000000000    0.000000000000000    0.000000000000000
   0.000000000000000   14.620911000000000    0.000000000000000
  -2.565748000000000    0.000000000000000   13.745848000000001
  Al  C  H  N  O
  8  40  24  16  40
Direct
   0.740536523634924    0.560418567625506    0.434083804796910
   0.262659531729573    0.063841781131148    0.067811458412751
   0.265695708742604    0.439855628695093    0.564638136548578
   0.735473935010537    0.937636512526477    0.940865925478006
   0.997263416833792    0.495986194020332    0.498665487934975
   0.998072614324624    0.000186323547144    0.995420580818295
   0.500926282339315    0.501800469204689    0.501333202578699
   0.498231251827526    0.002603175684470    0.002358537647150
   0.092279608824432    0.403956360858773    0.680078086124625
   0.909695646223545    0.905340303350455    0.821971841970026
   0.917737111096584    0.598184340223397    0.326508775595365
   0.086178061995660    0.095330585077770    0.177715481794939
   0.532701125869782    0.668084225394710    0.396185815527714
   0.475622783020637    0.172123337595038    0.104011043916679
   0.475573569613997    0.331999832294992    0.602902054496747
   0.528872508121996    0.829934605306058    0.896146967433366
   0.094700289793385    0.175613544190235    0.946744064098483
   0.903189948558306    0.664037281945017    0.559023350178177
   0.901688389696669    0.837909484573157    0.067163262681211
   0.099845037435980    0.326539160247949    0.442172792831697
   0.482495035898855    0.748393858631654    0.346758526647465
   0.520763941416751    0.258548868808517    0.143817973252723
   0.524775899213019    0.251761330056657    0.655643798767453
   0.481644670759672    0.745322914557102    0.847972420471986
   0.416939069909316    0.938580366161862    0.170243407318341
   0.582082173167647    0.437660143064957    0.325027601061790
   0.576475205657155    0.060718514735505    0.822793908386009
   0.415874633023574    0.557516559672650    0.676712706265921
   0.059513109146662    0.344515468290587    0.754329598290335
   0.932628823063466    0.848722764265510    0.739248680765276
   0.936283771269974    0.649076517872245    0.239103473281532
   0.065138866117660    0.147444984789251    0.261155950509565
   0.066199066314750    0.246466174371761    0.877312189106121
   0.928730171369736    0.744967259564059    0.623359868376254
   0.930121711303228    0.768153229302880    0.137339653399339
   0.075790260587059    0.246682987127136    0.381993166227358
   0.433595862713489    0.867100552079142    0.241784282788519
   0.569669629479272    0.367964075562733    0.253352139496959
   0.559354261003805    0.125167987138421    0.742420547644641
   0.434876061516446    0.626067007726126    0.755027990997718
   0.515800313990760    0.798999460430338    0.269252940960790
   0.482414432677115    0.305651952877628    0.217051723545903
   0.476209404390308    0.192581707117976    0.712246345223663
   0.522574214124244    0.684129737196266    0.787736049460172
   0.132958813904453    0.293204028121093    0.822670234677410
   0.861835901889062    0.799539782439001    0.668182130342195
   0.865439530592586    0.715523129851485    0.188858482939721
   0.141085895942769    0.195541167031247    0.330635112508155
   0.686594185302752    0.534156182196855    0.586949601072266
   0.328463624662449    0.061508821167163    0.915309117342197
   0.322260145749860    0.474431449586144    0.406047702549890
   0.666873397488563    0.948183050974047    0.088316122803046
   0.823029493505192    0.426689554433373    0.518450371341223
   0.171982272980259    0.956164769760243    0.950417900736281
   0.169231241625820    0.575322563689773    0.483780265866464
   0.826429183740620    0.066624029104616    0.038334702959032
   0.273886615411220    0.880820627387719    0.284241466950602
   0.679465386554463    0.422743835866315    0.172842737676133
   0.683449474969217    0.083811467014607    0.664455914251343
   0.266096993194261    0.646852306261901    0.759873090405190
   0.891654816978791    0.222641393549280    0.841264940511491
   0.082364124741770    0.707288348858700    0.677243775720494
   0.101940400344361    0.780840537227810    0.171453227185402
   0.907896365394283    0.280599478377237    0.341064443605080
   0.588420218516922    0.782338391910053    0.230868259273637
   0.399822909147614    0.302899730392997    0.240776705809638
   0.389360934272084    0.191235689759687    0.723780009789138
   0.610210307522265    0.683491610064517    0.771913089683518
   0.225849230638770    0.293013889490197    0.829239491081234
   0.768772423724698    0.804772014548204    0.645430532914375
   0.778953097772349    0.722786699132496    0.193249627087394
   0.232628107243976    0.190830790229145    0.343179991514529
   0.393570252921561    0.788042550836949    0.371227006147602
   0.612971971635700    0.293976893779054    0.121774225933533
   0.627176692933233    0.224711715979941    0.644659390966640
   0.378723053461255    0.722834575766175    0.861227332064199
   0.352190012116540    0.847792589668318    0.294432180539171
   0.647410592605184    0.360128038533303    0.192989184806932
   0.641543257278193    0.139556967414684    0.690470315108970
   0.347891898577908    0.649028641238566    0.799274078980067
   0.957589705981579    0.267241213628891    0.833720844286944
   0.035766633677933    0.766846881155353    0.664164189797530
   0.036747157683429    0.734147140352609    0.156172249249373
   0.965952321299859    0.225508519954742    0.346226002208085
   0.952984864986246    0.335159690117805    0.762579362146301
   0.042708894540717    0.833682661771212    0.735887665860993
   0.036555306714048    0.649653773284031    0.209902655696469
   0.959501523903335    0.156955336093626    0.278593215929639
   0.630996116414028    0.651900555307395    0.383886828953732
   0.381063336971666    0.150365459443669    0.122436244020740
   0.385479597313706    0.360508999747006    0.622842621277349
   0.630734241574355    0.844530139059050    0.895223052080890
   0.652548516935692    0.515738725172460    0.521230847307492
   0.349951343594229    0.029980826776115    0.977516992767562
   0.349661508064938    0.487005221494064    0.475666543089957
   0.647143074311735    0.980062049485152    0.025549096716332
   0.188191223142772    0.389498301439630    0.657354133408139
   0.816059167037830    0.888939136555855    0.847033955271439
   0.824666729934127    0.611245085891023    0.351714204900272
   0.180008537781611    0.104856667276068    0.156575280040926
   0.847184415121350    0.473851458366719    0.478591790044528
   0.151167507766139    0.983632278453785    0.008463646622602
   0.149124186927948    0.519031953617665    0.514142161327551
   0.846449048970778    0.021971886703913    0.990342683841695
   0.195252662721669    0.162327094392408    0.978593681524778
   0.802682868128618    0.644174634535427    0.533157357770870
   0.796504048323415    0.850473681154341    0.040043800862631
   0.204157404101836    0.343417041523610    0.471309591085250
   0.009643323341529    0.129992583909443    0.965527917957481
   0.983180108150962    0.619897761500634    0.534211494263577
   0.982521809617921    0.878912401559657    0.039796453445433
   0.018823935246468    0.373205882998672    0.459622425622632
   0.316943234536214    0.970876575337884    0.152198685741323
   0.677010063806152    0.480890007469439    0.334525014389800
   0.671786988167602    0.018291404687437    0.838173097796513
   0.316265375062004    0.532084491862374    0.655146193963443
   0.478559219988998    0.623973430930535    0.450975450914342
   0.534901530460085    0.124848581596591    0.057964339486367
   0.525499293043008    0.373844010130422    0.546104540076393
   0.466238462048273    0.882099617458857    0.934296669074182
   0.497249301998662    0.954988372475559    0.127215141619491
   0.500823383592409    0.450210660607947    0.369197302341769
   0.497658784704464    0.053322532364775    0.868895101997345
   0.496784135182292    0.530916985952517    0.638269097694082
   0.020657317617642    0.457784060104052    0.637982465687093
   0.984688935933257    0.960931914570850    0.863802655172675
   0.988357459933133    0.542739778663587    0.369022704164923
   0.015503691065958    0.043103606881951    0.126959064293451
