COMMENT
    1.000000000
  12.219991000000000    0.000000000000000    0.000000000000000
   0.000000000000000   14.620911000000000    0.000000000000000
  -2.565748000000000    0.000000000000000   13.745848000000001
  Al  C  H  N  O
  8  40  136  16  96
Direct
   0.734576384506188    0.559939117336806    0.432550978302685
   0.248632698325909    0.056462008420679    0.062737780892092
   0.266210720139439    0.429397320043874    0.570431158557842
   0.724669671309628    0.924107943752616    0.945543701632668
   0.997637972215899    0.493426162022325    0.507971570760858
   0.991222421673447    0.984541934493685    0.999778260315406
   0.505071312420837    0.501819619858161    0.512726461110293
   0.486760278088231    0.996661562333565    0.011297375032810
   0.091919193673389    0.396676376731929    0.680564778542582
   0.895011466132220    0.873639132335872    0.825791177088529
   0.909914142835535    0.579987799665835    0.317701752558300
   0.081483933916167    0.090086725786102    0.182841393270171
   0.511232833957794    0.649419177779004    0.384585949153519
   0.457965798448178    0.165291341969047    0.106280092723272
   0.488424876931736    0.337156145742218    0.627550952112958
   0.512235606359045    0.816618061624204    0.915571014607465
   0.071951531493917    0.169254843285757    0.953393344666695
   0.899795605148109    0.664484586493961    0.539848105406083
   0.887648866228102    0.816200850959287    0.065657717152118
   0.102919378729155    0.324317000493335    0.448279364066880
   0.453127519839954    0.725515667252198    0.332707738365796
   0.509746096711492    0.250906390169532    0.153772979302550
   0.542412367241540    0.259682177122889    0.683396906469503
   0.464656308237314    0.725611420519556    0.882579234107638
   0.404549501719828    0.927931234927837    0.174967015494424
   0.576753294759921    0.426660144501256    0.338345804493110
   0.575368589628310    0.057486363195836    0.837911200531244
   0.419826467357567    0.557364722348696    0.683814487109126
   0.053365632890342    0.333811620903786    0.750415689159374
   0.913139291549720    0.823142962842739    0.738550288057892
   0.938626863721114    0.640620136460717    0.240714141462935
   0.063293836878801    0.138225996998409    0.268401774848667
   0.045733970690932    0.227471461935580    0.863046063073009
   0.923757033572143    0.717992196245501    0.627763379894787
   0.911790737762367    0.717834887306270    0.095089077079857
   0.078206348643242    0.244636603013314    0.382868339588798
   0.408587462476254    0.850822496628288    0.240107412798396
   0.545077729801230    0.375156513845136    0.246803252880433
   0.573994339311064    0.138493422195101    0.777522056114690
   0.424662742232821    0.622464633017737    0.764332618838794
   0.493152428645405    0.784171383028048    0.266619418460032
   0.486569007849631    0.289412198733718    0.236979195463241
   0.489952015101934    0.199542969654900    0.738848559943337
   0.508630864415821    0.674772591119664    0.812856362153866
   0.118307070329067    0.268411455346387    0.807640241620597
   0.852044594842122    0.755760020699121    0.683620246637385
   0.858552425931486    0.683950541795925    0.172777263359816
   0.140460993933637    0.198982813040856    0.322954975204149
   0.680601584284600    0.565842306269425    0.587394098930819
   0.297884928165203    0.998816010849119    0.920387014318797
   0.330944557134671    0.447263511829051    0.421163539710318
   0.657317953269507    0.939271157590659    0.096501867327501
   0.823812671450456    0.415204633965695    0.513617639304610
   0.163498140841972    0.904656351440755    0.036416596487899
   0.167935726275867    0.561746118282233    0.480897213471297
   0.817342150867382    0.046247597020459    0.031789453804523
   0.247040229025887    0.860261032982145    0.282849046490257
   0.675598852778391    0.418617553995096    0.172433886945353
   0.726717047090447    0.111694818469246    0.730307799125962
   0.262061524526457    0.645305890994070    0.760273211227128
   0.875344076435513    0.212628337591276    0.811808773092791
   0.084526226871563    0.694443731994538    0.692548033413435
   0.087385612121029    0.745165605617871    0.105874151962105
   0.915940939849091    0.220977338552981    0.412819201841894
   0.583798200198105    0.788856453609491    0.256552378580063
   0.435116529541805    0.262119781729059    0.287261287917632
   0.407048124320426    0.202940158790379    0.758338081433754
   0.597703612219669    0.678118483861915    0.802344096922940
   0.209645677552582    0.261749763745912    0.810251939349249
   0.771169936277305    0.727697473844140    0.696615443441540
   0.770483361482451    0.675067374392745    0.169817824262279
   0.222267405575361    0.219735281884966    0.310324979586563
   0.276160657413764    0.865376993266699    0.628842251129214
   0.170013744968334    0.914094887794611    0.625463776407247
   0.745715878830968    0.893658404732783    0.563535985557239
   0.760563933400762    0.799854400317463    0.512292875637793
   0.104711939831776    0.557648562391222    0.174788779855561
   0.150994835061644    0.460199094297202    0.206608570093311
   0.820392704689489    0.479261517972444    0.651681875137860
   0.858981049467311    0.428421320668733    0.751761550105894
   0.664600495179792    0.541093506416939    0.862864189972128
   0.688305484708080    0.431515519108214    0.871506799725997
   0.842376311269282    0.962819621841621    0.284007214396667
   0.870125573414423    0.859570241553348    0.299786524629110
   0.211878753734606    0.156645505878532    0.681416672147109
   0.111389910510699    0.066864643386448    0.600835976070738
   0.375560925953028    0.068505307227436    0.423771599976953
   0.426707209775721    0.157825322922765    0.474402888785035
   0.295383488992701    0.466415533204463    0.931277575599556
   0.243940075322006    0.563529864862730    0.030971679593722
   0.016967243093234    0.966458246001224    0.580501108407426
   0.109463303022875    0.020064891989288    0.699189311565209
   0.149160514043264    0.102997002033594    0.461340762679756
   0.268449035195673    0.101756313269399    0.516194417397894
   0.794844303250982    0.572405508794903    0.792108278805353
   0.798811299894230    0.634293581295994    0.889606810725682
   0.297763563093294    0.774931192728004    0.476737411907945
   0.251065691936308    0.879432205011028    0.482993846578254
   0.837372960708493    0.137239738344622    0.609611716934452
   0.948458433334700    0.103974369312555    0.656893630716708
   0.449277338664698    0.900497923829781    0.680688452251182
   0.412372486446269    0.801064995197632    0.641897829802861
   0.231114242940715    0.095331952981589    0.780017355058778
   0.080403404059908    0.033680869817209    0.824772687723595
   0.367900686954493    0.582041023298753    0.029403933464127
   0.642785527844793    0.484425354890677    0.965244195920106
   0.692084509097643    0.268505840709926    0.476658842728364
   0.614962925674547    0.189194093309234    0.495146607179128
   0.030471662645516    0.912063550622803    0.479646654029639
   0.909908911518821    0.893001810899471    0.524209201207521
   0.045404601777481    0.588987922845574    0.850642317592920
   0.017629231490514    0.504504131103732    0.772487808682302
   0.033855181945879    0.759241335919492    0.886427668922281
   0.985657789004073    0.683475195218684    0.947056885831998
   0.692117638516958    0.296995173556559    0.919186651852981
   0.795526140283194    0.277479289765186    0.866079706395706
   0.611930431214296    0.863051556773720    0.669592010620225
   0.710199461554967    0.920626628532244    0.719724239639490
   0.252164258850872    0.079184532345488    0.310710550560431
   0.302924408789593    0.990718020238274    0.280710946316299
   0.707964317797337    0.142495908770664    0.056314022968972
   0.774464413494794    0.094602176293940    0.145543585233883
   0.953444663236203    0.392678677819734    0.294255399885114
   0.942054849143818    0.376478592886586    0.178856917376069
   0.546369934113212    0.699942705348524    0.064443459581395
   0.650008698860079    0.742080982505126    0.031215244050422
   0.184005498224740    0.698123393268723    0.898169396315164
   0.881392095101310    0.598208278540236    0.027829494404419
   0.624174649684551    0.433610463807625    0.142488117139081
   0.623221703699303    0.550471855002742    0.112257170310628
   0.532248813543603    0.442244672715674    0.860718087381732
   0.401759560683096    0.443558544334207    0.829355889865798
   0.506358026337652    0.038198645761540    0.330547085927329
   0.565410184960553    0.134085352137086    0.367353836591238
   0.040512688714443    0.365451236246497    0.997784931129749
   0.790348142217014    0.260209504045268    0.092011056720546
   0.103017300373433    0.804833570220077    0.389319014730848
   0.097519583801198    0.699368185744377    0.349264010485203
   0.799830335344655    0.254644187356041    0.330258271443130
   0.741103633931865    0.262710032227130    0.223704641576133
   0.578901300233120    0.778412507948376    0.573625577701718
   0.558853709665742    0.679340705924549    0.609201411218864
   0.233324427957358    0.866054105657301    0.786230140184876
   0.167899236108927    0.950255425260437    0.841388614220090
   0.419598614209323    0.670139500883358    0.156266823261832
   0.365536416402721    0.739358853904521    0.079010767469566
   0.841183927721824    0.290762319803465    0.629227822103082
   0.863901816666309    0.267889600039286    0.527122080791232
   0.213356302651023    0.768891897365356    0.029208674503021
   0.314664767442731    0.717445034717741    0.933256354937142
   0.035789197040996    0.920797616509669    0.336527073484299
   0.163283756362772    0.956609338501548    0.357176945358337
   0.988710878024128    0.270142537629837    0.069780052856688
   0.924731460934850    0.129952914698681    0.959918951526308
   0.710839155204104    0.888781827616624    0.392134410332487
   0.589573491127630    0.898275080123256    0.391138473232063
   0.068409696886504    0.458826402814435    0.055976611992218
   0.274049487351507    0.369903079226732    0.956630685862378
   0.322251307056653    0.860958663930038    0.886056647796484
   0.239881391935062    0.809758023969915    0.134256540593203
   0.405830267659611    0.311410827957300    0.894320961500520
   0.515386854336813    0.269691129369435    0.965084147591331
   0.348846920395081    0.054765397313478    0.685381505746317
   0.412254008587138    0.055151966932840    0.597790692869585
   0.836535758579135    0.719469532370452    0.328808379082906
   0.951360768973658    0.759015631789291    0.376662101894332
   0.630415161243014    0.004974936240293    0.605296231996745
   0.546026151753164    0.072906537766354    0.541263078130938
   0.684884555765904    0.009888576710439    0.319062163352890
   0.736608101884481    0.106525509935735    0.297236663754757
   0.327343927114180    0.588084422372860    0.229461288965221
   0.373955036842651    0.523388727282452    0.165350293412236
   0.819135960550846    0.060405333156053    0.435858886261510
   0.734901607326408    0.072634324906293    0.507142956913244
   0.330557483231711    0.458279241286675    0.278476089652672
   0.305926455124703    0.351138174632210    0.292459948633216
   0.258385112427800    0.368559113724172    0.105725016019383
   0.200829323472686    0.276010161063151    0.056869390669823
   0.875541748893189    0.452940312679559    0.024520058711547
   0.906606217390173    0.253530713647050    0.048804409884352
   0.430718625839549    0.866368723535763    0.482747226653459
   0.533261239172494    0.928266371363590    0.524902501468080
   0.776165862116119    0.476687122984334    0.081812340715538
   0.052516125580115    0.485981345485244    0.891789287936255
   0.348343432655954    0.750986036369416    0.341543133606599
   0.574402984451269    0.304051505408931    0.109772783752592
   0.647659803829765    0.238844898241977    0.681114035307243
   0.358710020353018    0.693971805176846    0.882702907816237
   0.318430008107633    0.822294862474712    0.280589455084910
   0.594791023240215    0.381202648726882    0.166049413612023
   0.662715409642145    0.157777446289086    0.735647593367830
   0.334098340409616    0.630624179300455    0.807327419887082
   0.939579786551607    0.261428306348353    0.827129763111014
   0.024461460913180    0.744399579479008    0.672816984445048
   0.025664285821452    0.708451067105189    0.137102490875790
   0.978119188265595    0.199216040642064    0.373578261595792
   0.945149396252836    0.329313269193691    0.758105283864626
   0.019863855560479    0.825037509632608    0.724079736659390
   0.045206245278030    0.653893591172260    0.218085490251311
   0.966642370998672    0.134515557888288    0.302586642890275
   0.605110289283514    0.627818608566867    0.363750566716582
   0.355587152517055    0.150697176119874    0.106269907829622
   0.385167752054910    0.346379237244519    0.627110091716422
   0.610006415814202    0.839708278095667    0.903421891468609
   0.655739944519001    0.533684939331072    0.526687040333925
   0.340092897356236    0.018047917807584    0.983024110262241
   0.352216111836831    0.468841510628168    0.487490477124438
   0.639057477297935    0.976026733217923    0.037079487565991
   0.190292984148118    0.387917688576314    0.663152247864228
   0.795836981112135    0.869952631542590    0.844225834593835
   0.808168111385719    0.582771483938313    0.331547387982175
   0.173517206845301    0.103097542964320    0.159399405551407
   0.851336486765627    0.477485294862953    0.499863667923580
   0.140478462115490    0.970883414856981    0.017665625285541
   0.146485308624218    0.513066525061263    0.520657583293515
   0.841531915044403    0.002671420406020    0.985694007383175
   0.176588476637687    0.148289665397731    0.982209318770293
   0.798558377766029    0.667059665433980    0.494411839851568
   0.785606401933721    0.835625085194760    0.042787974957965
   0.206203366886811    0.337465975957312    0.484908606584330
   0.037804621851595    0.222482032754320    0.037002518869698
   0.980000814009230    0.619599558468005    0.517588292843046
   0.967521817698347    0.869993668657172    0.061934338281640
   0.023832991269910    0.369701313413371    0.470626475718341
   0.304548408103249    0.969385560174739    0.157774187521934
   0.681302885008439    0.449543807495990    0.358872002658548
   0.662266155630320    0.006472284798122    0.846211888855457
   0.330722910614704    0.513714227519749    0.667996619779296
   0.464573412401469    0.612114388768251    0.450345442492890
   0.526105236388731    0.115905226425357    0.068693906698226
   0.542793281898278    0.387336329453069    0.581463580857289
   0.452960968006726    0.868960901273525    0.958834987845057
   0.481823952981130    0.949742461328162    0.134823984667952
   0.511754540699805    0.449724370800151    0.393509370975148
   0.488739124950402    0.044461935374615    0.874664116757293
   0.502935232727724    0.555118624277242    0.639499287348442
   0.020809851604932    0.453724805519984    0.638233450566309
   0.977031597820938    0.913356219732136    0.877283089409980
   0.976550337178587    0.523145924354508    0.363455932293155
   0.012673962303581    0.034320638433542    0.136196035340999
   0.231140221183211    0.894438109909841    0.673348053899621
   0.773888738844020    0.865965191909040    0.509953987560462
   0.154791855914595    0.507747431059528    0.160465909414974
   0.815906253747867    0.483717464664138    0.722166431638121
   0.640370253333705    0.480558290793234    0.890741698875180
   0.894283920549319    0.916618670341403    0.264617359365533
   0.271767805695616    0.129379762998352    0.732410252172147
   0.414517297612751    0.093730137609072    0.487981534496817
   0.278497448695645    0.408185919468356    0.898278520175692
   0.058126459197388    0.049151930409808    0.644205435706840
   0.192767516796514    0.084226625823794    0.524598409643407
   0.752641921606737    0.621108356380803    0.824998210368687
   0.306684051741142    0.831329867201845    0.512773020624119
   0.888560191935871    0.143021867789223    0.674328713659572
   0.466463718345342    0.833327006778169    0.694114324558223
   0.154589530571937    0.016538504338068    0.821535346527912
   0.313888718258383    0.530934768702169    0.037095346900388
   0.620252913300841    0.239729932013128    0.447793399141326
   0.993399356163418    0.906708207169854    0.538490604581107
   0.066489647574550    0.524796984264524    0.833909992311860
   0.022962394559944    0.696700773296548    0.889424937624801
   0.729941949036646    0.316266202564259    0.863016963376868
   0.668546274077830    0.906496182077847    0.652717824320479
   0.275826580892074    0.018694320757441    0.336501611250175
   0.783200133001553    0.132810465777406    0.088819547546285
   0.994256431301460    0.376464913848392    0.242465215678218
   0.625558014770429    0.684088700081684    0.058272796265461
   0.886092671643592    0.661068246705010    0.008591830784103
   0.642887272527619    0.484762543182159    0.100137146867912
   0.463393681295718    0.402734822748049    0.831218270418820
   0.532346801815089    0.096558278755681    0.308714311405160
   0.628871538651065    0.274514358236638    0.009776697661723
   0.088122365885400    0.738927964201410    0.405091777531659
   0.749384891438438    0.220950664428502    0.279691001966557
   0.618621330795816    0.721685536557879    0.600435855248800
   0.241505450302522    0.859324018865856    0.862682316871247
   0.421912034012315    0.691755800989419    0.091498174576061
   0.813949038600011    0.305766172846548    0.557513803440865
   0.248159305521221    0.688035102600652    0.952840450440017
   0.108727890366191    0.911277005926649    0.377540912717789
   0.992458042753122    0.099506111486487    0.935176934882446
   0.641991202333762    0.900436368157908    0.344077717140478
   0.016328307602709    0.432874531552788    0.999545462746278
   0.184594642269636    0.806837549315497    0.076583852811409
   0.429621200540959    0.259035158616313    0.933874723480137
   0.410745443134749    0.023008142242299    0.658059801039558
   0.867415137658275    0.775751935019644    0.361292369885074
   0.628839061389450    0.063497548134997    0.565791212008164
   0.756559416102947    0.041058043510421    0.315245010711598
   0.382607772150677    0.540866434382919    0.235340155078101
   0.812287171638135    0.088382317627130    0.499952421996810
   0.286444882967137    0.411449737981443    0.309887756652045
   0.261634979509494    0.320043668961531    0.058102781290758
   0.863434416225391    0.291739003130516    0.098435542136069
   0.507953268311439    0.881176282380763    0.476463147271816
   0.855318186134289    0.486271341094956    0.079813191590653
