COMMENT
    1.000000000
  11.897069999999999    0.000000000000000    0.000000000000000
   0.000000000000000   15.009448000000001    0.000000000000000
  -2.816105000000000    0.000000000000000   13.739188000000000
  Al  C  H  N  O
  8  40  24  16  40
Direct
   0.491726751198243    0.497450006156122    0.500466985385162
   0.502398739808160    0.996672229385118    0.003207613142785
   0.732743994564159    0.430467529518740    0.428558805658675
   0.266081569230468    0.575774005812872    0.569130431871228
   0.272457578327508    0.933845135410709    0.073898835942852
   0.734295745482020    0.060398023964639    0.938337840635123
   0.002970119712180    0.496423985745512    0.497451523336022
   0.999458059069736    0.999163993239458    0.999928088908893
   0.506336621218561    0.346008061055943    0.373182898436210
   0.488916326149790    0.650771434099375    0.626181110557625
   0.496837608213909    0.847246347767086    0.132534761151824
   0.512135032304848    0.148343230210731    0.873130202454468
   0.921783034823873    0.401952823315021    0.322046688639824
   0.083287668747207    0.606370067706687    0.678057538771578
   0.086396191516607    0.898693942641995    0.178423935970597
   0.920989106798405    0.104061122034601    0.831024366214364
   0.407867549124299    0.082992392525028    0.153818406153260
   0.595549984744411    0.913358039549489    0.846229049344110
   0.591180319165905    0.581972768085808    0.347832783130997
   0.400703067159364    0.421395243849074    0.659823564536711
   0.497519506685288    0.200533024265782    0.274309515234816
   0.502620770807458    0.792960540587502    0.724101016741310
   0.511203196581669    0.718307562010275    0.252685966594241
   0.496478024629230    0.285422222056401    0.756493032921596
   0.912078832478592    0.164113297171222    0.059538161935043
   0.088727185379406    0.834754216144391    0.939153027093013
   0.076173124353362    0.671517033804308    0.435449314762998
   0.913760608912118    0.329731646360346    0.560793694649203
   0.873397897693769    0.284254291030556    0.186618015562492
   0.128854720541180    0.711858290857865    0.824590215957450
   0.118005534555848    0.784112780163534    0.308010924663088
   0.872701308259413    0.206669159318850    0.678575036603328
   0.450050726083472    0.269321030327031    0.322159504622835
   0.548498184774792    0.727395171361398    0.671701267935194
   0.555014009234021    0.774505498136907    0.188853227716223
   0.457320157355311    0.220459806383286    0.809902302814402
   0.939713288452684    0.232929951854325    0.139140682840936
   0.061047576838901    0.780608320838981    0.854541039834377
   0.047136950696203    0.731585865116425    0.351421059235815
   0.945582300592004    0.262028290447457    0.634897782896631
   0.952115134798784    0.339390229407504    0.249202500176866
   0.054170754260410    0.662488054190934    0.755459492948200
   0.043965161273701    0.835706949382815    0.238131249095652
   0.947661755142683    0.159061146019494    0.748501294254071
   0.404302227509142    0.160653476397000    0.213394707169012
   0.596516451934907    0.834887465548367    0.784092917281574
   0.602314859976157    0.670351101519523    0.300202602948588
   0.399329339037501    0.340799341854544    0.718953696535778
   0.665240941809973    0.428183634734602    0.580922249553613
   0.336064986087410    0.584441879541473    0.418364607864744
   0.315417412243637    0.952599989020249    0.908823723789208
   0.675186595660373    0.065452506980936    0.090792847437563
   0.821617767770753    0.548315301135658    0.536714396804236
   0.186692244454287    0.464782582277509    0.462148854794039
   0.175766799635116    0.059959100427944    0.976760780913690
   0.815443987134723    0.940654179953853    0.034918511923703
   0.119974769515124    0.214063168745446    0.183224074086474
   0.884241498548047    0.815832800779882    0.789879285442488
   0.867125093098010    0.704462948937229    0.311216354270718
   0.117312408817386    0.291479073714103    0.688058129781760
   0.297846424921497    0.329471143775574    0.292932886572336
   0.719715070186424    0.679731859559392    0.696387588553268
   0.724596891831830    0.814993329534837    0.197428698115202
   0.282648378266031    0.176810632876039    0.788627391953586
   0.589032596035337    0.175474141354166    0.279606771520995
   0.408374070019340    0.814073908647407    0.707525073534185
   0.419495663707941    0.709886199679029    0.256158515335841
   0.585676610679384    0.295303997855218    0.745240548422512
   0.782927876702275    0.284594743257713    0.172553137783689
   0.219298350735393    0.703516878169004    0.850960042180076
   0.211037739965716    0.786264758037737    0.323855383593266
   0.780066184027318    0.207566594054625    0.664358039208722
   0.051301721050087    0.257772304484482    0.171240833155497
   0.950345438637716    0.767629828891775    0.804574477036052
   0.936406080853011    0.749121486679590    0.302790092107336
   0.055421646533275    0.241042175568349    0.673779993402812
   0.332993040557312    0.266208990497185    0.288974137336209
   0.666290306972730    0.734297490487325    0.702332626935449
   0.670974897986286    0.761400419255925    0.207146157400277
   0.339577082334342    0.229674668915206    0.791480544556199
   0.305483380775616    0.200425092248562    0.222231473941546
   0.696842342356692    0.808117660289706    0.761595226733923
   0.700940123355836    0.694649130334440    0.274738943815311
   0.303080719462397    0.309633638758734    0.741972524140437
   0.060169660957498    0.326313132901357    0.241825062732965
   0.945308427214506    0.688366420936999    0.751318054604100
   0.931841503448458    0.819610421382585    0.237911439890043
   0.056121317608007    0.172967720065388    0.741484867955806
   0.613695969412548    0.352708507334847    0.371244647063567
   0.383083608157594    0.649854011953005    0.625957662126757
   0.387346587091450    0.846293614528662    0.123066952719477
   0.620742761921101    0.149377911832600    0.887687103488212
   0.640787851016928    0.460068884611879    0.518694409014565
   0.346421105286569    0.543656235725658    0.473610230822957
   0.350346347173726    0.966957612298600    0.977699701030367
   0.650072894981150    0.031267105892235    0.028068107081729
   0.824433069469700    0.387966965873762    0.341186829964042
   0.176834213706112    0.622062850012872    0.652053818609950
   0.187722722155642    0.888273839251117    0.170775012322417
   0.819661859453959    0.117440028440753    0.844686017834533
   0.843169530343162    0.511865592925203    0.485545433980523
   0.159347786117873    0.491058698494442    0.517417768793905
   0.154939260008615    0.014613062385772    0.020891700441103
   0.846884297057479    0.980742263139857    0.989956611700779
   0.344654963425195    0.016567364769177    0.166085506654396
   0.663565996783334    0.977064579590135    0.838630347004495
   0.658584479048602    0.518862519127952    0.336612323814188
   0.337868183382385    0.486963278063257    0.668949285794765
   0.804399144013394    0.148148686080927    0.030745630673370
   0.194530396083348    0.834121281475508    0.986513904606298
   0.183275532351979    0.670331114108927    0.475363609552471
   0.811419805862971    0.333791089452457    0.518435296176164
   0.444757269570998    0.399560330266643    0.409952174757344
   0.545721657948316    0.586595856156735    0.598041893014347
   0.557658779139934    0.903504246125507    0.098400283917798
   0.451833447145492    0.093834896526508    0.909718973202783
   0.479135734187588    0.085847927252221    0.098895946397997
   0.523652927344268    0.912385318900468    0.900657302309278
   0.513002322505457    0.580063304126841    0.397650137693727
   0.466796687001197    0.414860693078120    0.599918277557597
   0.994442604252467    0.128229898927662    0.033185294502121
   0.001608968418189    0.875775045158223    0.957880480272924
   0.997242200463534    0.625800495794382    0.458846621794534
   0.991112697210144    0.379986659069674    0.538487427350146
   0.995023056918433    0.459239407072132    0.359453557226235
   0.012653545884489    0.547523133429024    0.637114071079019
   0.017714096336431    0.959642220020350    0.137457177236384
   0.991316813847460    0.044618296422360    0.870335277455989
